%nproc=8
%mem=32GB
#P Ub3lyp/6-311++G(d,p) SCF(Tight) CPHF(Separate) Int(Grid=SuperFine) NMR geom=connectivity guess=mix

U_5_hexagons19

0 2
C 2.8364290715683187 2.6898077186848672 0.5123011667089956
C 2.2242064467570133 1.4464830540504943 0.4805175475321348
C 2.1195854649271832 3.8541880094279097 0.15104315074688737
C 0.8673851034315304 1.2871248851597945 0.0824006444480836
C 0.11208946054073429 2.4930985474801384 -0.15721204417636156
C 0.187135357473008 0.0009945005303810994 -3.802443510686023e-07
C 0.7792997465098765 3.754053466054799 -0.1586484561462637
C -1.2888458950597717 2.4262137715064025 -0.31601534094764183
C 2.239462463928992 -1.422750653082559 -0.48051826426083094
C 0.8810221809391551 -1.2778282702890011 -0.08240185655332351
C 2.8648713414141875 -2.6594941350886567 -0.512302604102021
C 0.13859399423138824 -2.49176532727582 0.15721086096392098
C -1.2342655551835222 -0.00656228934225261 -3.168195258163446e-07
C 2.16044903880661 -3.8314314982429325 -0.15104453174647775
C 0.8191746603518119 -3.7455546430506015 0.15864714578453026
C -1.2629730339362648 -2.4397819639072345 0.31601376137881393
C -1.9835609036707968 1.2204371090903077 -0.16514546516627326
C -1.9704712035837861 -1.2414611254834362 0.16514469964084913
C -3.409149563473648 1.1775965282332215 -0.1806619536330236
C -3.3964352402463547 -1.2137816246408337 0.18066042096138923
C -4.095898103993296 -0.02177793767100126 -9.610721109099961e-07
H 3.869310129177097 2.770465423759177 0.8356700548771633
H 2.7843959760147783 0.5866744134296751 0.8202232234822767
H 0.19537679303983863 4.6435223913778465 -0.377655835552738
H 2.6125730991073217 4.820898718054766 0.1575193209598914
H -1.8439799587774928 3.343353050206711 -0.49317026340346093
H -1.8083234144936333 -3.3627725769466417 0.49316866539524984
H -3.930785059651563 -2.1480327849081062 0.32350954940771737
H -5.181225762303073 -0.02754872286651141 -1.1722940159846087e-06
H -3.9534034972880527 2.106112631476424 -0.3235103788382173
H 3.8985520756011884 -2.7291644532238086 -0.8356717511237637
H 2.6636883211204445 -4.792844932873401 -0.15752035743136247
H 0.2447429867124625 -4.641182442393532 0.3776542428294304
H 2.7904772275263325 -0.5570337033013534 -0.8202250581056
Bq -0.6736236236986788 0.7249365512292749 0.826616230771922
Bq -0.67231714078623 0.8244011365889736 0.8163649205326068
Bq -0.671010657873781 0.9238657219486723 0.8061136102932914
Bq -0.6697041749613322 1.023330307308371 0.7958623000539762
Bq -0.6683976920488832 1.1227948926680698 0.7856109898146609
Bq -0.6670912091364344 1.2222594780277685 0.7753596795753456
Bq -0.6657847262239854 1.3217240633874672 0.7651083693360303
Bq -0.6644782433115366 1.4211886487471659 0.7548570590967151
Bq -0.6631717603990878 1.5206532341068646 0.7446057488573997
Bq -0.6618652774866388 1.620117819466563 0.7343544386180845
Bq -0.66055879457419 1.7195824048262618 0.7241031283787692
Bq -0.659252311661741 1.8190469901859607 0.7138518181394539
Bq -0.6579458287492922 1.9185115755456594 0.7036005079001386
Bq -0.6566393458368432 2.0179761609053584 0.6933491976608234
Bq -0.6553328629243944 2.117440746265057 0.683097887421508
Bq -0.6540263800119456 2.2169053316247553 0.6728465771821928
Bq -0.6527198970994966 2.3163699169844545 0.6625952669428775
Bq -0.6514134141870478 2.415834502344153 0.6523439567035622
Bq -0.6501069312745988 2.5152990877038515 0.6420926464642469
Bq -0.64880044836215 2.6147636730635506 0.6318413362249317
Bq -0.6474939654497011 2.714228258423249 0.6215900259856164
Bq -0.6461874825372522 2.813692843782948 0.611338715746301
Bq -0.6448809996248034 2.9131574291426467 0.6010874055069858
Bq -0.6435745167123544 3.0126220145023455 0.5908360952676704
Bq -0.6422680337999056 3.112086599862044 0.5805847850283552
Bq -0.6409615508874567 3.211551185221742 0.57033347478904
Bq -0.6396550679750078 3.3110157705814416 0.5600821645497247
Bq -0.6383485850625589 3.4104803559411403 0.5498308543104093
Bq -0.63704210215011 3.509944941300839 0.539579544071094
Bq -0.6357356192376612 3.6094095266605377 0.5293282338317787
Bq -0.6344291363252123 3.7088741120202355 0.5190769235924635
Bq -0.6331226534127634 3.8083386973799342 0.5088256133531482
Bq -0.6318161705003145 3.907803282739634 0.49857430311383294
Bq -0.6305096875878656 4.0072678680993326 0.48832299287451764
Bq -0.6292032046754167 4.106732453459031 0.47807168263520233
Bq -0.6278967217629678 4.206197038818729 0.4678203723958871
Bq -0.626590238850519 4.305661624178428 0.4575690621565718
Bq -0.6252837559380701 4.4051262095381265 0.44731775191725653
Bq -0.6239772730256212 4.504590794897826 0.43706644167794123
Bq -0.6226707901131723 4.604055380257525 0.4268151314386259
Bq -0.5768116157183971 0.7262430341417238 0.851630790796543
Bq -0.5755051328059483 0.8257076195014225 0.8413794805572277
Bq -0.5741986498934993 0.9251722048611213 0.8311281703179124
Bq -0.5728921669810505 1.02463679022082 0.8208768600785972
Bq -0.5715856840686016 1.1241013755805187 0.8106255498392818
Bq -0.5702792011561527 1.2235659609402174 0.8003742395999666
Bq -0.5689727182437039 1.3230305462999161 0.7901229293606513
Bq -0.5676662353312549 1.4224951316596148 0.779871619121336
Bq -0.5663597524188061 1.5219597170193135 0.7696203088820207
Bq -0.5650532695063571 1.621424302379012 0.7593689986427055
Bq -0.5637467865939083 1.7208888877387107 0.7491176884033901
Bq -0.5624403036814594 1.8203534730984097 0.7388663781640749
Bq -0.5611338207690105 1.9198180584581084 0.7286150679247596
Bq -0.5598273378565617 2.019282643817807 0.7183637576854442
Bq -0.5585208549441127 2.118747229177506 0.708112447446129
Bq -0.5572143720316639 2.218211814537204 0.6978611372068138
Bq -0.555907889119215 2.317676399896903 0.6876098269674984
Bq -0.5546014062067661 2.417140985256602 0.6773585167281831
Bq -0.5532949232943172 2.5166055706163 0.6671072064888679
Bq -0.5519884403818683 2.6160701559759993 0.6568558962495525
Bq -0.5506819574694195 2.7155347413356976 0.6466045860102373
Bq -0.5493754745569706 2.8149993266953963 0.636353275770922
Bq -0.5480689916445217 2.914463912055095 0.6261019655316067
Bq -0.5467625087320728 3.0139284974147937 0.6158506552922914
Bq -0.5454560258196239 3.1133930827744924 0.6055993450529762
Bq -0.544149542907175 3.212857668134191 0.5953480348136608
Bq -0.5428430599947262 3.31232225349389 0.5850967245743456
Bq -0.5415365770822773 3.4117868388535886 0.5748454143350303
Bq -0.5402300941698284 3.5112514242132873 0.564594104095715
Bq -0.5389236112573795 3.610716009572986 0.5543427938563996
Bq -0.5376171283449306 3.7101805949326847 0.5440914836170845
Bq -0.5363106454324817 3.8096451802923834 0.5338401733777691
Bq -0.5350041625200328 3.909109765652082 0.5235888631384539
Bq -0.533697679607584 4.008574351011781 0.5133375528991386
Bq -0.5323911966951351 4.1080389363714795 0.5030862426598233
Bq -0.5310847137826862 4.207503521731178 0.492834932420508
Bq -0.5297782308702373 4.306968107090877 0.4825836221811927
Bq -0.5284717479577884 4.406432692450576 0.47233231194187747
Bq -0.5271652650453396 4.505897277810274 0.46208100170256217
Bq -0.5258587821328906 4.605361863169973 0.45182969146324686
Bq -0.47999960773811545 0.7275495170541727 0.8766453508211639
Bq -0.4786931248256666 0.8270141024138714 0.8663940405818487
Bq -0.4773866419132177 0.9264786877735701 0.8561427303425334
Bq -0.47608015900076883 1.0259432731332687 0.845891420103218
Bq -0.47477367608831994 1.1254078584929674 0.8356401098639028
Bq -0.47346719317587105 1.2248724438526661 0.8253887996245876
Bq -0.4721607102634222 1.3243370292123648 0.8151374893852722
Bq -0.47085422735097326 1.4238016145720636 0.804886179145957
Bq -0.46954774443852443 1.5232661999317623 0.7946348689066417
Bq -0.46824126152607554 1.622730785291461 0.7843835586673263
Bq -0.46693477861362664 1.7221953706511597 0.7741322484280111
Bq -0.46562829570117775 1.8216599560108584 0.7638809381886958
Bq -0.46432181278872886 1.921124541370557 0.7536296279493805
Bq -0.46301532987628 2.020589126730256 0.7433783177100652
Bq -0.4617088469638311 2.1200537120899545 0.7331270074707499
Bq -0.46040236405138224 2.2195182974496532 0.7228756972314346
Bq -0.45909588113893335 2.318982882809352 0.7126243869921194
Bq -0.45778939822648446 2.4184474681690507 0.702373076752804
Bq -0.45648291531403556 2.5179120535287494 0.6921217665134888
Bq -0.4551764324015867 2.617376638888448 0.6818704562741735
Bq -0.45386994948913784 2.716841224248147 0.6716191460348583
Bq -0.4525634665766889 2.8163058096078455 0.6613678357955429
Bq -0.45125698366424005 2.915770394967544 0.6511165255562277
Bq -0.44995050075179116 3.015234980327243 0.6408652153169123
Bq -0.44864401783934227 3.1146995656869416 0.6306139050775971
Bq -0.4473375349268934 3.2141641510466403 0.6203625948382818
Bq -0.4460310520144445 3.313628736406339 0.6101112845989666
Bq -0.44472456910199565 3.4130933217660377 0.5998599743596512
Bq -0.4434180861895467 3.5125579071257365 0.589608664120336
Bq -0.44211160327709786 3.612022492485435 0.5793573538810206
Bq -0.440805120364649 3.711487077845134 0.5691060436417054
Bq -0.4394986374522001 3.8109516632048326 0.5588547334023901
Bq -0.4381921545397512 3.9104162485645313 0.5486034231630749
Bq -0.4368856716273023 4.00988083392423 0.5383521129237595
Bq -0.4355791887148534 4.109345419283929 0.5281008026844443
Bq -0.4342727058024045 4.208810004643627 0.517849492445129
Bq -0.4329662228899557 4.308274590003326 0.5075981822058137
Bq -0.4316597399775068 4.407739175363025 0.4973468719664984
Bq -0.4303532570650579 4.5072037607227236 0.48709556172718316
Bq -0.429046774152609 4.606668346082422 0.4768442514878678
Bq -0.3831875997578338 0.7288559999666215 0.9016599108457849
Bq -0.3818811168453849 0.8283205853263202 0.8914086006064696
Bq -0.380574633932936 0.927785170686019 0.8811572903671543
Bq -0.3792681510204871 1.0272497560457177 0.870905980127839
Bq -0.3779616681080383 1.1267143414054164 0.8606546698885238
Bq -0.3766551851955894 1.226178926765115 0.8504033596492084
Bq -0.3753487022831405 1.3256435121248138 0.8401520494098932
Bq -0.3740422193706916 1.4251080974845125 0.8299007391705779
Bq -0.3727357364582427 1.5245726828442112 0.8196494289312626
Bq -0.3714292535457938 1.6240372682039097 0.8093981186919473
Bq -0.3701227706333449 1.7235018535636084 0.7991468084526321
Bq -0.3688162877208961 1.8229664389233073 0.7888954982133167
Bq -0.3675098048084472 1.922431024283006 0.7786441879740015
Bq -0.3662033218959983 2.021895609642705 0.7683928777346862
Bq -0.3648968389835494 2.1213601950024037 0.7581415674953709
Bq -0.3635903560711005 2.220824780362102 0.7478902572560556
Bq -0.3622838731586516 2.320289365721801 0.7376389470167404
Bq -0.36097739024620273 2.4197539510815 0.727387636777425
Bq -0.3596709073337539 2.519218536441198 0.7171363265381098
Bq -0.358364424421305 2.6186831218008972 0.7068850162987945
Bq -0.3570579415088561 2.7181477071605955 0.6966337060594792
Bq -0.3557514585964072 2.8176122925202947 0.6863823958201639
Bq -0.35444497568395833 2.9170768778799934 0.6761310855808487
Bq -0.35313849277150944 3.016541463239692 0.6658797753415333
Bq -0.35183200985906055 3.116006048599391 0.655628465102218
Bq -0.3505255269466117 3.2154706339590886 0.6453771548629028
Bq -0.3492190440341628 3.314935219318788 0.6351258446235875
Bq -0.3479125611217139 3.414399804678487 0.6248745343842722
Bq -0.34660607820926503 3.5138643900381856 0.614623224144957
Bq -0.34529959529681614 3.6133289753978843 0.6043719139056416
Bq -0.34399311238436725 3.712793560757582 0.5941206036663264
Bq -0.34268662947191836 3.812258146117281 0.5838692934270111
Bq -0.34138014655946947 3.9117227314769805 0.5736179831876957
Bq -0.34007366364702063 4.011187316836679 0.5633666729483805
Bq -0.33876718073457174 4.110651902196378 0.5531153627090653
Bq -0.33746069782212285 4.210116487556076 0.5428640524697499
Bq -0.33615421490967395 4.309581072915774 0.5326127422304346
Bq -0.33484773199722506 4.409045658275473 0.5223614319911194
Bq -0.33354124908477617 4.508510243635173 0.512110121751804
Bq -0.3322347661723273 4.607974828994871 0.5018588115124888
Bq -0.2863755917775522 0.7301624828790705 0.9266744708704058
Bq -0.2850691088651033 0.8296270682387692 0.9164231606310905
Bq -0.2837626259526544 0.9290916535984679 0.9061718503917753
Bq -0.2824561430402055 1.0285562389581666 0.8959205401524599
Bq -0.28114966012775666 1.1280208243178653 0.8856692299131447
Bq -0.27984317721530777 1.227485409677564 0.8754179196738294
Bq -0.2785366943028589 1.3269499950372627 0.8651666094345141
Bq -0.27723021139041 1.4264145803969615 0.8549152991951988
Bq -0.2759237284779611 1.5258791657566602 0.8446639889558836
Bq -0.2746172455655122 1.6253437511163589 0.8344126787165682
Bq -0.2733107626530633 1.7248083364760576 0.824161368477253
Bq -0.2720042797406145 1.8242729218357563 0.8139100582379377
Bq -0.2706977968281656 1.923737507195455 0.8036587479986224
Bq -0.2693913139157167 2.0232020925551537 0.7934074377593071
Bq -0.2680848310032678 2.1226666779148524 0.7831561275199919
Bq -0.2667783480908189 2.2221312632745507 0.7729048172806765
Bq -0.26547186517837 2.32159584863425 0.7626535070413613
Bq -0.2641653822659211 2.4210604339939485 0.752402196802046
Bq -0.2628588993534723 2.520525019353647 0.7421508865627306
Bq -0.2615524164410234 2.619989604713346 0.7318995763234154
Bq -0.2602459335285745 2.7194541900730442 0.7216482660841002
Bq -0.2589394506161256 2.818918775432743 0.7113969558447848
Bq -0.2576329677036767 2.9183833607924416 0.7011456456054695
Bq -0.2563264847912278 3.0178479461521404 0.6908943353661543
Bq -0.25502000187877893 3.117312531511839 0.6806430251268389
Bq -0.2537135189663301 3.216777116871538 0.6703917148875238
Bq -0.2524070360538812 3.3162417022312365 0.6601404046482084
Bq -0.2511005531414323 3.415706287590935 0.6498890944088931
Bq -0.24979407022898342 3.515170872950634 0.6396377841695778
Bq -0.24848758731653453 3.6146354583103326 0.6293864739302626
Bq -0.24718110440408564 3.7141000436700313 0.6191351636909472
Bq -0.24587462149163675 3.81356462902973 0.6088838534516321
Bq -0.2445681385791879 3.9130292143894287 0.5986325432123167
Bq -0.24326165566673902 4.0124937997491275 0.5883812329730014
Bq -0.24195517275429013 4.111958385108826 0.5781299227336861
Bq -0.24064868984184123 4.211422970468525 0.5678786124943709
Bq -0.23934220692939234 4.310887555828224 0.5576273022550555
Bq -0.23803572401694345 4.410352141187922 0.5473759920157404
Bq -0.23672924110449456 4.509816726547621 0.537124681776425
Bq -0.23542275819204572 4.60928131190732 0.5268733715371097
Bq -0.18956358379727056 0.7314689657915193 0.9516890308950268
Bq -0.18825710088482167 0.830933551151218 0.9414377206557115
Bq -0.18695061797237278 0.9303981365109167 0.9311864104163962
Bq -0.1856441350599239 1.0298627218706153 0.9209351001770809
Bq -0.18433765214747505 1.129327307230314 0.9106837899377657
Bq -0.18303116923502616 1.2287918925900128 0.9004324796984503
Bq -0.18172468632257727 1.3282564779497115 0.8901811694591351
Bq -0.18041820341012837 1.4277210633094102 0.8799298592198198
Bq -0.17911172049767948 1.5271856486691089 0.8696785489805045
Bq -0.1778052375852306 1.6266502340288076 0.8594272387411892
Bq -0.1764987546727817 1.7261148193885063 0.849175928501874
Bq -0.17519227176033286 1.8255794047482052 0.8389246182625586
Bq -0.17388578884788397 1.925043990107904 0.8286733080232433
Bq -0.17257930593543502 2.0245085754676024 0.8184219977839281
Bq -0.1712728230229862 2.123973160827301 0.8081706875446127
Bq -0.16996634011053735 2.223437746187 0.7979193773052975
Bq -0.1686598571980884 2.3229023315466986 0.7876680670659822
Bq -0.16735337428563957 2.4223669169063973 0.7774167568266669
Bq -0.16604689137319062 2.521831502266096 0.7671654465873516
Bq -0.16474040846074178 2.6212960876257947 0.7569141363480364
Bq -0.16343392554829284 2.7207606729854934 0.7466628261087211
Bq -0.162127442635844 2.820225258345192 0.7364115158694058
Bq -0.16082095972339516 2.919689843704891 0.7261602056300905
Bq -0.15951447681094622 3.0191544290645895 0.7159088953907752
Bq -0.15820799389849738 3.1186190144242882 0.7056575851514599
Bq -0.15690151098604843 3.218083599783987 0.6954062749121447
Bq -0.1555950280735996 3.3175481851436857 0.6851549646728294
Bq -0.15428854516115065 3.4170127705033844 0.6749036544335141
Bq -0.1529820622487018 3.516477355863083 0.6646523441941987
Bq -0.15167557933625297 3.615941941222782 0.6544010339548835
Bq -0.15036909642380403 3.7154065265824805 0.6441497237155682
Bq -0.1490626135113552 3.814871111942179 0.633898413476253
Bq -0.14775613059890624 3.914335697301878 0.6236471032369377
Bq -0.1464496476864574 4.013800282661577 0.6133957929976224
Bq -0.14514316477400846 4.113264868021275 0.603144482758307
Bq -0.14383668186155962 4.212729453380974 0.5928931725189919
Bq -0.1425301989491108 4.312194038740673 0.5826418622796765
Bq -0.14122371603666184 4.4116586241003715 0.5723905520403613
Bq -0.139917233124213 4.51112320946007 0.562139241801046
Bq -0.13861075021176406 4.610587794819769 0.5518879315617307
Bq -0.09275157581698878 0.7327754487039683 0.9767035909196478
Bq -0.09144509290453995 0.832240034063667 0.9664522806803324
Bq -0.090138609992091 0.9317046194233656 0.9562009704410172
Bq -0.08883212707964216 1.0311692047830643 0.9459496602017019
Bq -0.08752564416719322 1.130633790142763 0.9356983499623865
Bq -0.08621916125474438 1.2300983755024617 0.9254470397230713
Bq -0.08491267834229543 1.3295629608621606 0.915195729483756
Bq -0.0836061954298466 1.4290275462218593 0.9049444192444407
Bq -0.08229971251739776 1.528492131581558 0.8946931090051254
Bq -0.08099322960494881 1.6279567169412565 0.8844417987658102
Bq -0.07968674669249998 1.7274213023009553 0.8741904885264948
Bq -0.07838026378005103 1.826885887660654 0.8639391782871796
Bq -0.07707378086760219 1.9263504730203527 0.8536878680478643
Bq -0.07576729795515325 2.0258150583800516 0.843436557808549
Bq -0.07446081504270441 2.1252796437397503 0.8331852475692337
Bq -0.07315433213025557 2.2247442290994486 0.8229339373299185
Bq -0.07184784921780663 2.3242088144591477 0.8126826270906031
Bq -0.07054136630535779 2.4236733998188464 0.8024313168512879
Bq -0.06923488339290884 2.5231379851785447 0.7921800066119726
Bq -0.06792840048046 2.622602570538244 0.7819286963726573
Bq -0.06662191756801106 2.722067155897942 0.771677386133342
Bq -0.06531543465556222 2.8215317412576413 0.7614260758940268
Bq -0.06400895174311338 2.92099632661734 0.7511747656547114
Bq -0.06270246883066444 3.0204609119770387 0.7409234554153962
Bq -0.0613959859182156 3.1199254973367374 0.7306721451760809
Bq -0.060089503005766653 3.2193900826964352 0.7204208349367657
Bq -0.05878302009331782 3.318854668056135 0.7101695246974503
Bq -0.05747653718086887 3.4183192534158335 0.6999182144581351
Bq -0.05617005426842003 3.5177838387755322 0.6896669042188197
Bq -0.0548635713559712 3.617248424135231 0.6794155939795045
Bq -0.05355708844352225 3.7167130094949288 0.6691642837401892
Bq -0.05225060553107341 3.8161775948546275 0.658912973500874
Bq -0.050944122618624466 3.915642180214327 0.6486616632615586
Bq -0.04963763970617563 4.015106765574026 0.6384103530222434
Bq -0.04833115679372668 4.1145713509337245 0.628159042782928
Bq -0.047024673881277845 4.214035936293422 0.6179077325436128
Bq -0.04571819096882901 4.313500521653121 0.6076564223042975
Bq -0.04441170805638006 4.41296510701282 0.5974051120649823
Bq -0.043105225143931225 4.512429692372519 0.5871538018256669
Bq -0.04179874223148228 4.611894277732218 0.5769024915863517
Bq 0.004060432163292771 0.7340819316164171 1.0017181509442687
Bq 0.005366915075741607 0.8335465169761158 0.9914668407049534
Bq 0.006673397988190555 0.9330111023358145 0.981215530465638
Bq 0.007979880900639391 1.0324756876955132 0.9709642202263228
Bq 0.009286363813088339 1.131940273055212 0.9607129099870075
Bq 0.010592846725537175 1.2314048584149107 0.9504615997476923
Bq 0.011899329637986122 1.3308694437746094 0.9402102895083769
Bq 0.013205812550434959 1.430334029134308 0.9299589792690617
Bq 0.014512295462883795 1.5297986144940068 0.9197076690297464
Bq 0.015818778375332743 1.6292631998537055 0.9094563587904311
Bq 0.01712526128778158 1.728727785213404 0.8992050485511158
Bq 0.018431744200230527 1.828192370573103 0.8889537383118006
Bq 0.019738227112679363 1.9276569559328016 0.8787024280724852
Bq 0.02104471002512831 2.0271215412925003 0.86845111783317
Bq 0.022351192937577147 2.126586126652199 0.8581998075938546
Bq 0.023657675850025983 2.2260507120118973 0.8479484973545394
Bq 0.02496415876247493 2.3255152973715965 0.8376971871152241
Bq 0.026270641674923767 2.424979882731295 0.8274458768759088
Bq 0.027577124587372714 2.5244444680909934 0.8171945666365935
Bq 0.02888360749982155 2.6239090534506926 0.8069432563972783
Bq 0.0301900904122705 2.723373638810391 0.796691946157963
Bq 0.031496573324719335 2.8228382241700904 0.7864406359186477
Bq 0.03280305623716817 2.922302809529789 0.7761893256793324
Bq 0.03410953914961712 3.021767394889488 0.765938015440017
Bq 0.035416022062065955 3.1212319802491866 0.7556867052007018
Bq 0.0367225049745149 3.2206965656088844 0.7454353949613866
Bq 0.03802898788696374 3.320161150968584 0.7351840847220713
Bq 0.039335470799412686 3.4196257363282827 0.724932774482756
Bq 0.04064195371186152 3.5190903216879814 0.7146814642434407
Bq 0.04194843662431036 3.61855490704768 0.7044301540041253
Bq 0.043254919536759306 3.718019492407378 0.6941788437648101
Bq 0.04456140244920814 3.8174840777670767 0.6839275335254948
Bq 0.04586788536165709 3.9169486631267763 0.6736762232861796
Bq 0.04717436827410593 4.016413248486475 0.6634249130468642
Bq 0.048480851186554874 4.115877833846174 0.653173602807549
Bq 0.04978733409900371 4.2153424192058715 0.6429222925682337
Bq 0.05109381701145255 4.31480700456557 0.6326709823289184
Bq 0.052400299923901494 4.414271589925269 0.6224196720896031
Bq 0.05370678283635033 4.5137361752849685 0.6121683618502879
Bq 0.05501326574879928 4.613200760644667 0.6019170516109725
Bq 0.10087244014357444 0.7353884145288659 1.0267327109688895
Bq 0.10217892305602327 0.8348529998885648 1.0164814007295744
Bq 0.10348540596847222 0.9343175852482635 1.006230090490259
Bq 0.10479188888092106 1.0337821706079622 0.9959787802509438
Bq 0.10609837179337 1.133246755967661 0.9857274700116285
Bq 0.10740485470581884 1.2327113413273594 0.9754761597723132
Bq 0.10871133761826779 1.332175926687058 0.9652248495329979
Bq 0.11001782053071663 1.4316405120467568 0.9549735392936827
Bq 0.11132430344316546 1.5311050974064555 0.9447222290543673
Bq 0.11263078635561441 1.6305696827661542 0.9344709188150521
Bq 0.11393726926806325 1.730034268125853 0.9242196085757368
Bq 0.1152437521805122 1.8294988534855519 0.9139682983364215
Bq 0.11655023509296103 1.9289634388452506 0.9037169880971062
Bq 0.11785671800540998 2.028428024204949 0.893465677857791
Bq 0.11916320091785881 2.1278926095646478 0.8832143676184756
Bq 0.12046968383030765 2.2273571949243465 0.8729630573791604
Bq 0.1217761667427566 2.326821780284045 0.8627117471398451
Bq 0.12308264965520543 2.426286365643744 0.8524604369005297
Bq 0.12438913256765438 2.5257509510034426 0.8422091266612145
Bq 0.12569561548010322 2.6252155363631413 0.8319578164218993
Bq 0.12700209839255217 2.72468012172284 0.8217065061825839
Bq 0.128308581305001 2.8241447070825387 0.8114551959432686
Bq 0.12961506421744984 2.9236092924422374 0.8012038857039534
Bq 0.13092154712989879 3.023073877801936 0.790952575464638
Bq 0.13222803004234762 3.122538463161635 0.7807012652253228
Bq 0.13353451295479657 3.2220030485213336 0.7704499549860075
Bq 0.1348409958672454 3.3214676338810323 0.7601986447466922
Bq 0.13614747877969435 3.420932219240731 0.7499473345073769
Bq 0.1374539616921432 3.5203968046004297 0.7396960242680617
Bq 0.13876044460459203 3.6198613899601284 0.7294447140287463
Bq 0.14006692751704097 3.719325975319827 0.7191934037894311
Bq 0.1413734104294898 3.818790560679526 0.7089420935501158
Bq 0.14267989334193876 3.9182551460392245 0.6986907833108005
Bq 0.1439863762543876 4.017719731398923 0.6884394730714852
Bq 0.14529285916683654 4.117184316758622 0.67818816283217
Bq 0.14659934207928538 4.216648902118321 0.6679368525928546
Bq 0.1479058249917342 4.316113487478019 0.6576855423535394
Bq 0.14921230790418316 4.415578072837718 0.6474342321142241
Bq 0.150518790816632 4.515042658197417 0.6371829218749088
Bq 0.15182527372908095 4.6145072435571155 0.6269316116355935
Bq 0.197684448123856 0.7366948974413149 1.0517472709935105
Bq 0.19899093103630483 0.8361594828010136 1.0414959607541954
Bq 0.20029741394875378 0.9356240681607123 1.03124465051488
Bq 0.2016038968612026 1.0350886535204111 1.0209933402755647
Bq 0.20291037977365156 1.1345532388801098 1.0107420300362495
Bq 0.2042168626861004 1.2340178242398083 1.0004907197969342
Bq 0.20552334559854935 1.3334824095995073 0.9902394095576188
Bq 0.20682982851099818 1.432946994959206 0.9799880993183036
Bq 0.20813631142344702 1.5324115803189047 0.9697367890789883
Bq 0.20944279433589597 1.6318761656786032 0.959485478839673
Bq 0.2107492772483448 1.7313407510383019 0.9492341686003577
Bq 0.21205576016079375 1.8308053363980006 0.9389828583610424
Bq 0.21336224307324259 1.9302699217576993 0.9287315481217271
Bq 0.21466872598569153 2.0297345071173982 0.9184802378824118
Bq 0.21597520889814037 2.129199092477097 0.9082289276430966
Bq 0.2172816918105892 2.228663677836795 0.8979776174037812
Bq 0.21858817472303815 2.3281282631964944 0.887726307164466
Bq 0.219894657635487 2.427592848556193 0.8774749969251507
Bq 0.22120114054793594 2.5270574339158913 0.8672236866858354
Bq 0.22250762346038477 2.6265220192755905 0.8569723764465201
Bq 0.22381410637283372 2.725986604635289 0.8467210662072049
Bq 0.22512058928528256 2.825451189994988 0.8364697559678895
Bq 0.2264270721977314 2.9249157753546866 0.8262184457285743
Bq 0.22773355511018034 3.0243803607143853 0.815967135489259
Bq 0.22904003802262918 3.123844946074084 0.8057158252499437
Bq 0.23034652093507813 3.223309531433782 0.7954645150106285
Bq 0.23165300384752696 3.3227741167934814 0.7852132047713132
Bq 0.2329594867599759 3.42223870215318 0.7749618945319978
Bq 0.23426596967242475 3.521703287512879 0.7647105842926826
Bq 0.23557245258487358 3.6211678728725776 0.7544592740533673
Bq 0.23687893549732253 3.7206324582322754 0.744207963814052
Bq 0.23818541840977137 3.820097043591974 0.7339566535747368
Bq 0.2394919013222203 3.9195616289516737 0.7237053433354215
Bq 0.24079838423466915 4.019026214311372 0.7134540330961061
Bq 0.2421048671471181 4.118490799671071 0.7032027228567909
Bq 0.24341135005956693 4.217955385030769 0.6929514126174756
Bq 0.24471783297201577 4.317419970390468 0.6827001023781603
Bq 0.24602431588446472 4.416884555750166 0.6724487921388451
Bq 0.24733079879691355 4.516349141109866 0.6621974818995298
Bq 0.2486372817093625 4.615813726469565 0.6519461716602144
Bq 0.29449645610413766 0.7380013803537637 1.0767618310181315
Bq 0.2958029390165865 0.8374659657134624 1.0665105207788161
Bq 0.29710942192903544 0.9369305510731611 1.056259210539501
Bq 0.2984159048414843 1.0363951364328599 1.0460079003001856
Bq 0.29972238775393323 1.1358597217925586 1.0357565900608703
Bq 0.30102887066638206 1.2353243071522573 1.0255052798215551
Bq 0.302335353578831 1.334788892511956 1.0152539695822398
Bq 0.30364183649127985 1.4342534778716547 1.0050026593429244
Bq 0.3049483194037287 1.5337180632313534 0.9947513491036093
Bq 0.30625480231617763 1.633182648591052 0.9845000388642939
Bq 0.30756128522862647 1.7326472339507508 0.9742487286249787
Bq 0.3088677681410754 1.8321118193104495 0.9639974183856634
Bq 0.31017425105352425 1.9315764046701482 0.9537461081463481
Bq 0.3114807339659732 2.031040990029847 0.9434947979070328
Bq 0.31278721687842204 2.1305055753895457 0.9332434876677175
Bq 0.3140936997908709 2.229970160749244 0.9229921774284022
Bq 0.3154001827033198 2.329434746108943 0.912740867189087
Bq 0.31670666561576866 2.428899331468642 0.9024895569497716
Bq 0.3180131485282176 2.52836391682834 0.8922382467104564
Bq 0.31931963144066644 2.627828502188039 0.8819869364711411
Bq 0.3206261143531154 2.7272930875477375 0.8717356262318259
Bq 0.3219325972655642 2.826757672907437 0.8614843159925105
Bq 0.32323908017801306 2.926222258267136 0.8512330057531953
Bq 0.324545563090462 3.0256868436268345 0.8409816955138799
Bq 0.32585204600291084 3.125151428986533 0.8307303852745647
Bq 0.3271585289153598 3.224616014346231 0.8204790750352494
Bq 0.32846501182780874 3.3240805997059306 0.8102277647959342
Bq 0.32977149474025746 3.4235451850656293 0.7999764545566188
Bq 0.3310779776527064 3.523009770425328 0.7897251443173035
Bq 0.33238446056515536 3.6224743557850267 0.7794738340779882
Bq 0.3336909434776041 3.7219389411447246 0.769222523838673
Bq 0.33499742639005303 3.8214035265044233 0.7589712135993577
Bq 0.336303909302502 3.920868111864123 0.7487199033600425
Bq 0.3376103922149509 4.020332697223822 0.7384685931207271
Bq 0.33891687512739965 4.11979728258352 0.7282172828814117
Bq 0.3402233580398486 4.219261867943218 0.7179659726420966
Bq 0.34152984095229755 4.318726453302917 0.7077146624027812
Bq 0.3428363238647463 4.4181910386626155 0.697463352163466
Bq 0.3441428067771952 4.517655624022315 0.6872120419241508
Bq 0.34544928968964417 4.617120209382014 0.6769607316848354
Bq 0.3913084640844193 0.7393078632662127 1.1017763910427525
Bq 0.3926149469968683 0.8387724486259114 1.0915250808034371
Bq 0.393921429909317 0.9382370339856101 1.081273770564122
Bq 0.39522791282176595 1.0377016193453088 1.0710224603248066
Bq 0.3965343957342149 1.1371662047050075 1.0607711500854913
Bq 0.39784087864666384 1.236630790064706 1.0505198398461761
Bq 0.39914736155911257 1.336095375424405 1.0402685296068608
Bq 0.4004538444715615 1.4355599607841036 1.0300172193675454
Bq 0.40176032738401046 1.5350245461438023 1.0197659091282303
Bq 0.4030668102964592 1.6344891315035008 1.009514598888915
Bq 0.40437329320890814 1.7339537168631995 0.9992632886495997