%nproc=8
%mem=32GB
#P Ub3lyp/6-311++G(d,p) SCF(Tight) CPHF(Separate) Int(Grid=SuperFine) NMR geom=connectivity guess=mix

U_8_hexagons83_4A

0 1
C 3.248685240398173 -3.9924669174521945 1.1704652555581636
C 2.6043159045287156 -2.7968731738813495 0.8990618762029923
C 4.611543892906802 -4.167457145676577 0.8433930821646684
C 3.278207389072072 -1.7058589966783289 0.2749815315341619
C 5.319359950463938 -3.1057600410344115 0.31445514340558084
C 4.689093092183155 -1.8593154489609336 0.05783933086930143
C 5.456527921729488 -0.7264232778880251 -0.34204027866449876
C 2.645905929154856 -0.4308376297285332 -0.04447401233388934
C 4.877693084674374 0.5075852783919661 -0.4461498355704417
C -3.88095319005938 -1.5085300187228075 -1.4561940875378152
C -4.874555145544347 -2.3187964646997585 -1.9830561531492332
C -4.117703278099818 -0.6650955723018602 -0.3337070714421122
C -6.169588532853473 -2.3226766473359985 -1.422988753154056
C 0.3007153657456663 -1.3472441443901964 -0.3269550483029393
C -1.0636134269478497 -1.190398543200176 -0.32216588190426004
C 1.194917198607622 -0.2593704972861473 -0.08425814506176894
C -1.6701913428786432 0.043052821634421964 0.06669292408156617
C 3.4666000367497634 0.6948201128840545 -0.2867448361144928
C 0.6264726416643798 1.0293104314174715 0.061060904195993894
C 2.8688229746412106 2.0223202089134884 -0.41078673370845414
C -5.4681480725793445 -0.5956293159933035 0.1537930738887644
C -3.1032678860569702 0.19735303105721483 0.2639863189637503
C -6.4590614951526835 -1.4570760960607365 -0.38420994290151544
C -5.824131273993738 0.3929834959801939 1.127235437109419
C -0.7871498462349992 1.1241960190475104 0.3861436626826174
C -3.5443242122230783 1.2530752359411244 1.1091292019509482
C 1.4641672028815553 2.1973608542662078 -0.1977903942169233
C -1.3030848677619458 2.211435617174909 1.1619244471995844
C 3.6502835226941865 3.1588017144857985 -0.7404245430217036
C 0.9094482927839577 3.4860341321570285 -0.42959499518562627
C 3.08859224613376 4.415915951174653 -0.8944786878867883
C -4.909540332446519 1.3172222443757444 1.5407512537404127
C -2.6127742269768706 2.232061284895148 1.562977913573201
C 1.698881950203022 4.57561816536654 -0.760149326739234
H 5.103714397964253 -5.113552734867459 1.0438735529468652
H 6.383142812655174 -3.1971257586871604 0.113717865736433
H 1.579092729553211 -2.6797099180707415 1.2207173003465994
H 2.7039363899269944 -4.794420254806926 1.6586126166244075
H 6.522833459337893 -0.8496582952663745 -0.5073534622204663
H 5.508841849918382 1.3550654264777557 -0.6765016830374255
H -4.657521028196023 -2.939351028382091 -2.846743264550038
H -2.9203518111893803 -1.4817994671737407 -1.9515332419834728
H -7.465779493915558 -1.4014818804011588 0.020458036004731953
H -6.9386890644666686 -2.9707753138916084 -1.8303526254858329
H 0.707286222955192 -2.3146976784666284 -0.5860852726514987
H -1.6792029595250437 -2.0547169966908463 -0.522663888968889
H -5.193344497547456 2.110704598268849 2.2258140524177445
H -6.848764326507343 0.4235717978062369 1.4857229437090922
H -0.6223989012054922 2.967758009163544 1.5299563015406143
H -2.964311352272082 3.0074816948606777 2.2371833836252235
H 4.716307716395891 3.0551928269339057 -0.8932407760039823
H 3.7167185890526104 5.263732554847992 -1.1480450515220233
H 1.2385563692154538 5.54204324099463 -0.9385319878520818
H -0.16302675214161177 3.6156458297406346 -0.4015797785811885
Bq 5.2036258052728135 -0.28760708347048114 0.4190060500655439
Bq 5.113866330029011 -0.31684433157860026 0.4519972599103128
Bq 5.0241068547852095 -0.3460815796867194 0.4849884697550815
Bq 4.934347379541407 -0.3753188277948385 0.5179796795998504
Bq 4.844587904297605 -0.4045560759029576 0.550970889444619
Bq 4.754828429053803 -0.43379332401107673 0.5839620992893879
Bq 4.665068953810001 -0.46303057211919607 0.6169533091341568
Bq 4.575309478566199 -0.4922678202273152 0.6499445189789255
Bq 4.485550003322397 -0.5215050683354343 0.6829357288236944
Bq 4.395790528078595 -0.5507423164435534 0.7159269386684632
Bq 4.306031052834793 -0.5799795645516725 0.7489181485132319
Bq 4.216271577590991 -0.6092168126597917 0.7819093583580008
Bq 4.1265121023471885 -0.638454060767911 0.8149005682027697
Bq 4.036752627103387 -0.6676913088760299 0.8478917780475383
Bq 3.9469931518595844 -0.6969285569841492 0.8808829878923072
Bq 3.857233676615783 -0.7261658050922684 0.913874197737076
Bq 3.7674742013719804 -0.7554030532003875 0.9468654075818448
Bq 3.677714726128179 -0.7846403013085066 0.9798566174266137
Bq 3.5879552508843764 -0.8138775494166257 1.0128478272713823
Bq 3.498195775640575 -0.8431147975247448 1.0458390371161512
Bq 3.4084363003967724 -0.872352045632864 1.0788302469609201
Bq 3.318676825152971 -0.9015892937409831 1.1118214568056888
Bq 3.2289173499091683 -0.9308265418491022 1.1448126666504577
Bq 3.139157874665366 -0.9600637899572213 1.1778038764952266
Bq 3.0493983994215643 -0.9893010380653406 1.2107950863399952
Bq 2.9596389241777628 -1.0185382861734595 1.2437862961847639
Bq 2.8698794489339603 -1.0477755342815787 1.276777506029533
Bq 2.780119973690158 -1.077012782389698 1.3097687158743017
Bq 2.6903604984463563 -1.1062500304978171 1.3427599257190705
Bq 2.600601023202554 -1.1354872786059365 1.3757511355638394
Bq 2.5108415479587523 -1.1647245267140554 1.408742345408608
Bq 2.42108207271495 -1.1939617748221745 1.441733555253377
Bq 2.3313225974711482 -1.2231990229302938 1.4747247650981457
Bq 2.2415631222273458 -1.252436271038413 1.5077159749429145
Bq 2.151803646983544 -1.281673519146532 1.5407071847876834
Bq 2.0620441717397417 -1.3109107672546512 1.573698394632452
Bq 1.97228469649594 -1.3401480153627703 1.606689604477221
Bq 1.882525221252138 -1.3693852634708894 1.6396808143219896
Bq 1.792765746008336 -1.3986225115790085 1.6726720241667585
Bq 1.7030062707645335 -1.4278597596871276 1.7056632340115274
Bq 5.241284928211562 -0.37736655871428315 0.44191951910542326
Bq 5.15152545296776 -0.40660380682240227 0.47491072895019215
Bq 5.061765977723958 -0.4358410549305214 0.507901938794961
Bq 4.972006502480156 -0.4650783030386405 0.5408931486397297
Bq 4.882247027236354 -0.4943155511467596 0.5738843584844986
Bq 4.792487551992552 -0.523552799254879 0.6068755683292675
Bq 4.70272807674875 -0.5527900473629981 0.6398667781740361
Bq 4.612968601504948 -0.5820272954711172 0.672857988018805
Bq 4.523209126261146 -0.6112645435792363 0.7058491978635739
Bq 4.433449651017344 -0.6405017916873554 0.7388404077083426
Bq 4.343690175773541 -0.6697390397954746 0.7718316175531112
Bq 4.2539307005297395 -0.6989762879035939 0.8048228273978804
Bq 4.164171225285937 -0.728213536011713 0.837814037242649
Bq 4.0744117500421355 -0.7574507841198321 0.8708052470874178
Bq 3.984652274798333 -0.7866880322279513 0.9037964569321867
Bq 3.8948927995545315 -0.8159252803360704 0.9367876667769555
Bq 3.805133324310729 -0.8451625284441895 0.9697788766217242
Bq 3.7153738490669275 -0.8743997765523086 1.002770086466493
Bq 3.625614373823125 -0.9036370246604277 1.035761296311262
Bq 3.5358548985793234 -0.9328742727685468 1.0687525061560308
Bq 3.446095423335521 -0.962111520876666 1.1017437160007995
Bq 3.3563359480917194 -0.9913487689847851 1.1347349258455683
Bq 3.266576472847917 -1.0205860170929042 1.1677261356903372
Bq 3.1768169976041145 -1.0498232652010233 1.200717345535106
Bq 3.087057522360313 -1.0790605133091427 1.2337085553798748
Bq 2.9972980471165114 -1.1082977614172616 1.2666997652246434
Bq 2.907538571872709 -1.1375350095253807 1.2996909750694123
Bq 2.8177790966289065 -1.1667722576335 1.332682184914181
Bq 2.728019621385105 -1.1960095057416191 1.36567339475895
Bq 2.6382601461413024 -1.2252467538497385 1.3986646046037188
Bq 2.548500670897501 -1.2544840019578574 1.4316558144484874
Bq 2.4587411956536984 -1.2837212500659765 1.4646470242932563
Bq 2.368981720409897 -1.3129584981740958 1.497638234138025
Bq 2.2792222451660944 -1.342195746282215 1.5306294439827939
Bq 2.189462769922293 -1.371432994390334 1.5636206538275628
Bq 2.0997032946784904 -1.4006702424984532 1.5966118636723314
Bq 2.009943819434689 -1.4299074906065723 1.6296030735171003
Bq 1.9201843441908866 -1.4591447387146914 1.662594283361869
Bq 1.8304248689470846 -1.4883819868228105 1.6955854932066379
Bq 1.740665393703282 -1.5176192349309297 1.7285767030514068
Bq 5.278944051150311 -0.46712603395808516 0.46483298814530283
Bq 5.189184575906508 -0.4963632820662043 0.4978241979900715
Bq 5.099425100662707 -0.5256005301743234 0.5308154078348404
Bq 5.009665625418904 -0.5548377782824425 0.5638066176796093
Bq 4.919906150175103 -0.5840750263905619 0.5967978275243779
Bq 4.8301466749313 -0.613312274498681 0.6297890373691468
Bq 4.740387199687499 -0.6425495226068001 0.6627802472139157
Bq 4.650627724443696 -0.6717867707149192 0.6957714570586844
Bq 4.560868249199894 -0.7010240188230383 0.7287626669034533
Bq 4.471108773956092 -0.7302612669311574 0.7617538767482219
Bq 4.38134929871229 -0.7594985150392766 0.7947450865929908
Bq 4.291589823468488 -0.7887357631473959 0.8277362964377597
Bq 4.201830348224686 -0.817973011255515 0.8607275062825285
Bq 4.112070872980884 -0.8472102593636341 0.8937187161272973
Bq 4.022311397737082 -0.8764475074717533 0.9267099259720661
Bq 3.93255192249328 -0.9056847555798724 0.9597011358168348
Bq 3.8427924472494777 -0.9349220036879915 0.9926923456616037
Bq 3.753032972005676 -0.9641592517961106 1.0256835555063726
Bq 3.6632734967618736 -0.9933964999042297 1.0586747653511412
Bq 3.573514021518072 -1.0226337480123489 1.0916659751959101
Bq 3.4837545462742696 -1.051870996120468 1.1246571850406788
Bq 3.393995071030468 -1.081108244228587 1.1576483948854477
Bq 3.3042355957866656 -1.1103454923367064 1.1906396047302166
Bq 3.214476120542863 -1.1395827404448255 1.2236308145749855
Bq 3.1247166452990616 -1.1688199885529447 1.2566220244197541
Bq 3.03495717005526 -1.1980572366610638 1.2896132342645228
Bq 2.9451976948114575 -1.227294484769183 1.3226044441092917
Bq 2.855438219567655 -1.256531732877302 1.3555956539540606
Bq 2.7656787443238535 -1.2857689809854211 1.3885868637988295
Bq 2.675919269080051 -1.3150062290935405 1.4215780736435981
Bq 2.5861597938362495 -1.3442434772016592 1.454569283488367
Bq 2.496400318592447 -1.3734807253097783 1.487560493333136
Bq 2.4066408433486455 -1.4027179734178978 1.5205517031779046
Bq 2.316881368104843 -1.431955221526017 1.5535429130226734
Bq 2.2271218928610415 -1.461192469634136 1.5865341228674423
Bq 2.137362417617239 -1.4904297177422552 1.619525332712211
Bq 2.0476029423734374 -1.5196669658503743 1.6525165425569799
Bq 1.9578434671296352 -1.5489042139584934 1.6855077524017485
Bq 1.8680839918858332 -1.5781414620666125 1.7184989622465174
Bq 1.7783245166420307 -1.6073787101747317 1.7514901720912863
Bq 5.316603174089059 -0.5568855092018872 0.48774645718518217
Bq 5.226843698845257 -0.5861227573100063 0.5207376670299511
Bq 5.137084223601455 -0.6153600054181256 0.5537288768747197
Bq 5.047324748357653 -0.6445972535262448 0.5867200867194886
Bq 4.957565273113851 -0.6738345016343639 0.6197112965642575
Bq 4.867805797870049 -0.703071749742483 0.6527025064090262
Bq 4.778046322626247 -0.7323089978506021 0.685693716253795
Bq 4.688286847382445 -0.7615462459587212 0.7186849260985639
Bq 4.598527372138642 -0.7907834940668406 0.7516761359433326
Bq 4.508767896894841 -0.8200207421749597 0.7846673457881015
Bq 4.419008421651038 -0.8492579902830788 0.8176585556328704
Bq 4.329248946407237 -0.8784952383911979 0.850649765477639
Bq 4.239489471163434 -0.907732486499317 0.8836409753224079
Bq 4.149729995919633 -0.9369697346074362 0.9166321851671767
Bq 4.05997052067583 -0.9662069827155553 0.9496233950119455
Bq 3.9702110454320287 -0.9954442308236744 0.9826146048567143
Bq 3.8804515701882263 -1.0246814789317935 1.015605814701483
Bq 3.7906920949444247 -1.0539187270399126 1.048597024546252
Bq 3.7009326197006223 -1.0831559751480317 1.0815882343910208
Bq 3.6111731444568207 -1.1123932232561509 1.1145794442357895
Bq 3.5214136692130182 -1.14163047136427 1.1475706540805581
Bq 3.4316541939692167 -1.170867719472389 1.1805618639253272
Bq 3.341894718725414 -1.2001049675805084 1.213553073770096
Bq 3.2521352434816118 -1.2293422156886276 1.2465442836148648
Bq 3.1623757682378093 -1.258579463796747 1.2795354934596337
Bq 3.0726162929940077 -1.2878167119048658 1.3125267033044024
Bq 2.982856817750206 -1.317053960012985 1.345517913149171
Bq 2.8930973425064037 -1.3462912081211043 1.37850912299394
Bq 2.8033378672626013 -1.3755284562292234 1.4115003328387088
Bq 2.7135783920187997 -1.4047657043373425 1.4444915426834777
Bq 2.6238189167749972 -1.4340029524454616 1.4774827525282463
Bq 2.5340594415311957 -1.4632402005535807 1.5104739623730152
Bq 2.444299966287393 -1.4924774486616998 1.543465172217784
Bq 2.3545404910435916 -1.521714696769819 1.5764563820625528
Bq 2.264781015799789 -1.550951944877938 1.6094475919073217
Bq 2.1750215405559876 -1.5801891929860572 1.6424388017520903
Bq 2.085262065312185 -1.6094264410941763 1.6754300115968592
Bq 1.9955025900683834 -1.6386636892022954 1.708421221441628
Bq 1.9057431148245814 -1.6679009373104146 1.7414124312863968
Bq 1.815983639580779 -1.6971381854185337 1.7744036411311657
Bq 5.354262297027808 -0.6466449844456892 0.5106599262250617
Bq 5.2645028217840055 -0.6758822325538083 0.5436511360698304
Bq 5.174743346540204 -0.7051194806619276 0.5766423459145993
Bq 5.0849838712964015 -0.7343567287700468 0.6096335557593682
Bq 4.995224396052599 -0.7635939768781659 0.6426247656041368
Bq 4.9054649208087975 -0.792831224986285 0.6756159754489055
Bq 4.815705445564995 -0.8220684730944041 0.7086071852936746
Bq 4.7259459703211935 -0.8513057212025232 0.7415983951384433
Bq 4.636186495077391 -0.8805429693106426 0.7745896049832119
Bq 4.546427019833589 -0.9097802174187617 0.8075808148279808
Bq 4.456667544589787 -0.9390174655268808 0.8405720246727497
Bq 4.366908069345985 -0.9682547136349999 0.8735632345175185
Bq 4.277148594102183 -0.997491961743119 0.9065544443622873
Bq 4.187389118858381 -1.0267292098512382 0.9395456542070562
Bq 4.097629643614579 -1.0559664579593573 0.9725368640518249
Bq 4.0078701683707765 -1.0852037060674764 1.0055280738965937
Bq 3.918110693126975 -1.1144409541755955 1.0385192837413624
Bq 3.8283512178831725 -1.1436782022837146 1.0715104935861315
Bq 3.738591742639371 -1.1729154503918338 1.1045017034309002
Bq 3.6488322673955684 -1.2021526984999529 1.1374929132756688
Bq 3.559072792151767 -1.231389946608072 1.1704841231204377
Bq 3.4693133169079644 -1.2606271947161911 1.2034753329652066
Bq 3.379553841664163 -1.2898644428243105 1.2364665428099753
Bq 3.2897943664203604 -1.3191016909324296 1.2694577526547444
Bq 3.200034891176558 -1.348338939040549 1.302448962499513
Bq 3.1102754159327564 -1.3775761871486676 1.3354401723442817
Bq 3.020515940688955 -1.4068134352567867 1.3684313821890506
Bq 2.9307564654451523 -1.4360506833649063 1.4014225920338195
Bq 2.84099699020135 -1.4652879314730254 1.4344138018785884
Bq 2.7512375149575483 -1.4945251795811445 1.467405011723357
Bq 2.661478039713746 -1.5237624276892636 1.5003962215681257
Bq 2.5717185644699443 -1.5529996757973827 1.5333874314128948
Bq 2.481959089226142 -1.5822369239055019 1.5663786412576635
Bq 2.3921996139823403 -1.611474172013621 1.5993698511024321
Bq 2.302440138738538 -1.64071142012174 1.6323610609472012
Bq 2.2126806634947362 -1.6699486682298592 1.66535227079197
Bq 2.122921188250934 -1.6991859163379783 1.6983434806367386
Bq 2.033161713007132 -1.7284231644460974 1.7313346904815072
Bq 1.94340223776333 -1.7576604125542166 1.7643259003262763
Bq 1.8536427625195275 -1.7868976606623357 1.797317110171045
Bq 5.391921419966556 -0.7364044596894912 0.5335733952649411
Bq 5.302161944722754 -0.7656417077976103 0.5665646051097097
Bq 5.212402469478952 -0.7948789559057294 0.5995558149544786
Bq 5.12264299423515 -0.8241162040138488 0.6325470247992475
Bq 5.032883518991348 -0.8533534521219679 0.6655382346440162
Bq 4.943124043747546 -0.882590700230087 0.6985294444887851
Bq 4.853364568503744 -0.9118279483382061 0.731520654333554
Bq 4.763605093259942 -0.9410651964463252 0.7645118641783226
Bq 4.67384561801614 -0.9703024445544446 0.7975030740230915
Bq 4.584086142772338 -0.9995396926625637 0.8304942838678604
Bq 4.494326667528536 -1.0287769407706828 0.8634854937126291
Bq 4.404567192284733 -1.058014188878802 0.896476703557398
Bq 4.314807717040932 -1.087251436986921 0.9294679134021667
Bq 4.22504824179713 -1.1164886850950402 0.9624591232469355
Bq 4.1352887665533276 -1.1457259332031593 0.9954503330917044
Bq 4.045529291309525 -1.1749631813112784 1.028441542936473
Bq 3.9557698160657235 -1.2042004294193975 1.061432752781242
Bq 3.866010340821921 -1.2334376775275167 1.0944239626260108
Bq 3.7762508655781195 -1.2626749256356358 1.1274151724707795
Bq 3.686491390334317 -1.2919121737437549 1.1604063823155484
Bq 3.5967319150905155 -1.321149421851874 1.1933975921603173
Bq 3.506972439846713 -1.3503866699599931 1.226388802005086
Bq 3.4172129646029115 -1.3796239180681127 1.2593800118498548
Bq 3.327453489359109 -1.4088611661762318 1.2923712216946237
Bq 3.2376940141153066 -1.438098414284351 1.3253624315393924
Bq 3.147934538871505 -1.46733566239247 1.358353641384161
Bq 3.0581750636277034 -1.4965729105005892 1.3913448512289301
Bq 2.968415588383901 -1.5258101586087083 1.4243360610736988
Bq 2.8786561131400985 -1.5550474067168274 1.4573272709184677
Bq 2.788896637896297 -1.5842846548249465 1.4903184807632364
Bq 2.6991371626524945 -1.6135219029330656 1.5233096906080053
Bq 2.609377687408693 -1.6427591510411848 1.5563009004527741
Bq 2.5196182121648905 -1.6719963991493039 1.5892921102975428
Bq 2.429858736921089 -1.701233647257423 1.6222833201423117
Bq 2.3400992616772864 -1.730470895365542 1.6552745299870806
Bq 2.250339786433485 -1.7597081434736612 1.6882657398318492
Bq 2.1605803111896824 -1.7889453915817803 1.7212569496766181
Bq 2.070820835945881 -1.8181826396898995 1.7542481595213868
Bq 1.9810613607020786 -1.8474198877980186 1.7872393693661557
Bq 1.8913018854582762 -1.8766571359061377 1.8202305792109246
Bq 5.429580542905304 -0.8261639349332934 0.5564868643048204
Bq 5.339821067661503 -0.8554011830414125 0.5894780741495893
Bq 5.2500615924177 -0.8846384311495317 0.6224692839943582
Bq 5.160302117173899 -0.913875679257651 0.6554604938391269
Bq 5.070542641930096 -0.9431129273657701 0.6884517036838957
Bq 4.980783166686295 -0.9723501754738892 0.7214429135286646
Bq 4.891023691442492 -1.0015874235820084 0.7544341233734333
Bq 4.801264216198691 -1.0308246716901275 0.7874253332182022
Bq 4.711504740954888 -1.0600619197982466 0.8204165430629708
Bq 4.621745265711087 -1.0892991679063657 0.8534077529077397
Bq 4.531985790467284 -1.1185364160144848 0.8863989627525085
Bq 4.442226315223482 -1.147773664122604 0.9193901725972773
Bq 4.35246683997968 -1.177010912230723 0.9523813824420462
Bq 4.262707364735879 -1.2062481603388422 0.985372592286815
Bq 4.172947889492076 -1.2354854084469613 1.0183638021315837
Bq 4.083188414248274 -1.2647226565550804 1.0513550119763526
Bq 3.993428939004472 -1.2939599046631998 1.0843462218211213
Bq 3.9036694637606697 -1.3231971527713189 1.1173374316658902
Bq 3.813909988516868 -1.3524344008794378 1.150328641510659
Bq 3.7241505132730657 -1.381671648987557 1.1833198513554277
Bq 3.634391038029264 -1.410908897095676 1.2163110612001966
Bq 3.5446315627854617 -1.4401461452037951 1.2493022710449655
Bq 3.45487208754166 -1.4693833933119147 1.2822934808897342
Bq 3.3651126122978576 -1.4986206414200338 1.315284690734503
Bq 3.275353137054055 -1.527857889528153 1.348275900579272
Bq 3.1855936618102536 -1.557095137636272 1.3812671104240406
Bq 3.095834186566452 -1.5863323857443912 1.4142583202688095
Bq 3.0060747113226496 -1.6155696338525103 1.4472495301135782
Bq 2.916315236078847 -1.6448068819606294 1.480240739958347
Bq 2.8265557608350456 -1.6740441300687485 1.513231949803116
Bq 2.736796285591243 -1.7032813781768676 1.5462231596478846
Bq 2.6470368103474415 -1.7325186262849868 1.5792143694926535
Bq 2.557277335103639 -1.7617558743931059 1.6122055793374221
Bq 2.4675178598598375 -1.790993122501225 1.645196789182191
Bq 2.377758384616035 -1.8202303706093446 1.67818799902696
Bq 2.2879989093722335 -1.8494676187174637 1.7111792088717286
Bq 2.198239434128431 -1.8787048668255828 1.7441704187164975
Bq 2.1084799588846295 -1.907942114933702 1.7771616285612661
Bq 2.018720483640827 -1.937179363041821 1.810152838406035
Bq 1.9289610083970248 -1.9664166111499402 1.843144048250804
Bq 5.467239665844053 -0.9159234101770954 0.5794003333447
Bq 5.377480190600251 -0.9451606582852146 0.6123915431894686
Bq 5.287720715356449 -0.9743979063933337 0.6453827530342375
Bq 5.197961240112647 -1.003635154501453 0.6783739628790062
Bq 5.108201764868845 -1.0328724026095721 0.7113651727237751
Bq 5.018442289625043 -1.0621096507176913 0.744356382568544
Bq 4.928682814381241 -1.0913468988258104 0.7773475924133126
Bq 4.838923339137439 -1.1205841469339295 0.8103388022580815
Bq 4.749163863893637 -1.1498213950420486 0.8433300121028503
Bq 4.659404388649834 -1.1790586431501677 0.8763212219476192
Bq 4.569644913406033 -1.2082958912582868 0.909312431792388
Bq 4.479885438162231 -1.237533139366406 0.9423036416371567
Bq 4.390125962918429 -1.266770387474525 0.9752948514819256
Bq 4.300366487674626 -1.2960076355826442 1.0082860613266944
Bq 4.210607012430825 -1.3252448836907633 1.041277271171463
Bq 4.120847537187022 -1.3544821317988824 1.074268481016232
Bq 4.031088061943221 -1.383719379907002 1.1072596908610008
Bq 3.9413285866994183 -1.4129566280151211 1.1402509007057695
Bq 3.8515691114556168 -1.4421938761232402 1.1732421105505384
Bq 3.7618096362118143 -1.4714311242313594 1.2062333203953073
Bq 3.6720501609680127 -1.5006683723394785 1.239224530240076
Bq 3.5822906857242103 -1.5299056204475976 1.2722157400848448
Bq 3.492531210480408 -1.5591428685557167 1.3052069499296137
Bq 3.4027717352366063 -1.5883801166638358 1.3381981597743824
Bq 3.313012259992804 -1.617617364771955 1.3711893696191513
Bq 3.2232527847490022 -1.646854612880074 1.40418057946392
Bq 3.1334933095052007 -1.6760918609881932 1.4371717893086888
Bq 3.043733834261398 -1.7053291090963123 1.4701629991534577
Bq 2.9539743590175958 -1.7345663572044314 1.5031542089982266
Bq 2.864214883773794 -1.7638036053125505 1.5361454188429953
Bq 2.7744554085299917 -1.7930408534206697 1.5691366286877642
Bq 2.68469593328619 -1.8222781015287888 1.602127838532533
Bq 2.5949364580423877 -1.851515349636908 1.6351190483773017
Bq 2.505176982798586 -1.880752597745027 1.6681102582220706
Bq 2.4154175075547837 -1.9099898458531461 1.7011014680668395
Bq 2.325658032310982 -1.9392270939612652 1.7340926779116081
Bq 2.2358985570671797 -1.9684643420693844 1.767083887756377
Bq 2.146139081823378 -1.9977015901775035 1.8000750976011457
Bq 2.0563796065795756 -2.0269388382856226 1.8330663074459146
Bq 1.9666201313357734 -2.0561760863937417 1.8660575172906835
Bq 5.504898788782802 -1.0056828854208975 0.6023138023845793
Bq 5.415139313539 -1.0349201335290166 0.6353050122293482
Bq 5.325379838295198 -1.0641573816371357 0.6682962220741169
Bq 5.235620363051396 -1.093394629745255 0.7012874319188858
Bq 5.1458608878075935 -1.1226318778533741 0.7342786417636546
Bq 5.056101412563792 -1.1518691259614933 0.7672698516084233
Bq 4.9663419373199895 -1.1811063740696124 0.8002610614531922
Bq 4.876582462076188 -1.2103436221777315 0.833252271297961
Bq 4.7868229868323855 -1.2395808702858506 0.8662434811427298
Bq 4.697063511588583 -1.2688181183939697 0.8992346909874986
Bq 4.6073040363447815 -1.2980553665020889 0.9322259008322673
Bq 4.517544561100979 -1.327292614610208 0.9652171106770362
Bq 4.4277850858571774 -1.356529862718327 0.9982083205218051
Bq 4.338025610613375 -1.3857671108264462 1.0311995303665737
Bq 4.248266135369573 -1.4150043589345653 1.0641907402113426
Bq 4.158506660125771 -1.4442416070426844 1.0971819500561115
Bq 4.068747184881969 -1.4734788551508036 1.1301731599008802
Bq 3.978987709638167 -1.5027161032589227 1.163164369745649
Bq 3.8892282343943654 -1.5319533513670418 1.196155579590418
Bq 3.799468759150563 -1.561190599475161 1.2291467894351866
Bq 3.7097092839067614 -1.59042784758328 1.2621379992799553
Bq 3.619949808662959 -1.6196650956913992 1.2951292091247244
Bq 3.5301903334191564 -1.6489023437995187 1.328120418969493
Bq 3.440430858175355 -1.6781395919076378 1.361111628814262
Bq 3.3506713829315524 -1.707376840015757 1.3941028386590308
Bq 3.260911907687751 -1.736614088123876 1.4270940485037993
Bq 3.1711524324439493 -1.7658513362319952 1.4600852583485684
Bq 3.081392957200147 -1.7950885843401143 1.493076468193337
Bq 2.9916334819563444 -1.8243258324482334 1.526067678038106
Bq 2.901874006712543 -1.8535630805563525 1.5590588878828748
Bq 2.8121145314687404 -1.8828003286644717 1.5920500977276435
Bq 2.722355056224939 -1.9120375767725908 1.6250413075724124
Bq 2.6325955809811363 -1.94127482488071 1.658032517417181
Bq 2.5428361057373348 -1.970512072988829 1.69102372726195
Bq 2.4530766304935323 -1.9997493210969486 1.7240149371067188
Bq 2.3633171552497307 -2.0289865692050677 1.7570061469514875
Bq 2.2735576800059283 -2.058223817313187 1.7899973567962564
Bq 2.1837982047621267 -2.087461065421306 1.822988566641025
Bq 2.0940387295183243 -2.116698313529425 1.855979776485794
Bq 2.004279254274522 -2.145935561637544 1.8889709863305628
Bq 5.54255791172155 -1.0954423606646995 0.6252272714244587
Bq 5.452798436477749 -1.1246796087728186 0.6582184812692276
Bq 5.363038961233946 -1.1539168568809377 0.6912096911139962
Bq 5.273279485990145 -1.183154104989057 0.7242009009587651
Bq 5.183520010746342 -1.2123913530971762 0.757192110803534
Bq 5.09376053550254 -1.2416286012052953 0.7901833206483027
Bq 5.004001060258738 -1.2708658493134144 0.8231745304930715
Bq 4.914241585014936 -1.3001030974215335 0.8561657403378404
Bq 4.824482109771134 -1.3293403455296526 0.8891569501826091
Bq 4.734722634527332 -1.3585775936377718 0.922148160027378
Bq 4.64496315928353 -1.3878148417458909 0.9551393698721468
Bq 4.555203684039728 -1.41705208985401 0.9881305797169155
Bq 4.465444208795926 -1.446289337962129 1.0211217895616844
Bq 4.375684733552124 -1.4755265860702482 1.054112999406453
Bq 4.285925258308321 -1.5047638341783673 1.087104209251222
Bq 4.19616578306452 -1.5340010822864865 1.1200954190959909
Bq 4.106406307820717 -1.563238330394606 1.1530866289407595
Bq 4.016646832576916 -1.5924755785027251 1.1860778387855284
Bq 3.926887357333113 -1.6217128266108443 1.2190690486302973
Bq 3.8371278820893115 -1.6509500747189634 1.252060258475066
Bq 3.747368406845509 -1.6801873228270825 1.2850514683198349
Bq 3.6576089316017075 -1.7094245709352016 1.3180426781646037
Bq 3.567849456357905 -1.7386618190433207 1.3510338880093724
Bq 3.4780899811141026 -1.7678990671514399 1.3840250978541413
Bq 3.388330505870301 -1.797136315259559 1.4170163076989102
Bq 3.2985710306264995 -1.826373563367678 1.4500075175436788
Bq 3.208811555382697 -1.8556108114757972 1.4829987273884477
Bq 3.1190520801388946 -1.8848480595839163 1.5159899372332164
Bq 3.029292604895093 -1.9140853076920354 1.5489811470779853
Bq 2.9395331296512905 -1.9433225558001546 1.5819723569227542
Bq 2.849773654407489 -1.9725598039082737 1.6149635667675228
Bq 2.7600141791636865 -2.001797052016393 1.6479547766122917
Bq 2.670254703919885 -2.031034300124512 1.6809459864570604
Bq 2.5804952286760825 -2.060271548232631 1.7139371963018293
Bq 2.490735753432281 -2.08950879634075 1.7469284061465982
Bq 2.4009762781884785 -2.1187460444488693 1.7799196159913668
Bq 2.311216802944677 -2.1479832925569884 1.8129108258361357
Bq 2.2214573277008745 -2.1772205406651075 1.8459020356809044
Bq 2.131697852457073 -2.2064577887732266 1.8788932455256733
Bq 2.0419383772132704 -2.2356950368813457 1.9118844553704422
Bq 5.580217034660299 -1.1852018359085015 0.6481407404643382
Bq 5.490457559416496 -1.2144390840166206 0.6811319503091069
Bq 5.400698084172695 -1.2436763321247397 0.7141231601538758
Bq 5.310938608928892 -1.272913580232859 0.7471143699986447
Bq 5.221179133685091 -1.302150828340978 0.7801055798434133
Bq 5.131419658441288 -1.3313880764490973 0.8130967896881822
Bq 5.041660183197487 -1.3606253245572164 0.846087999532951
Bq 4.951900707953684 -1.3898625726653355 0.8790792093777198
Bq 4.862141232709883 -1.4190998207734546 0.9120704192224885
Bq 4.77238175746608 -1.4483370688815738 0.9450616290672574
Bq 4.682622282222279 -1.4775743169896929 0.9780528389120262
Bq 4.592862806978476 -1.506811565097812 1.011044048756795
Bq 4.503103331734675 -1.5360488132059311 1.0440352586015638
Bq 4.413343856490872 -1.5652860613140502 1.0770264684463327
Bq 4.32358438124707 -1.5945233094221694 1.1100176782911015
Bq 4.233824906003268 -1.6237605575302885 1.1430088881358702
Bq 4.144065430759466 -1.6529978056384076 1.1760000979806389
Bq 4.054305955515664 -1.6822350537465267 1.208991307825408
Bq 3.9645464802718617 -1.7114723018546458 1.2419825176701766
Bq 3.87478700502806 -1.740709549962765 1.2749737275149453
Bq 3.7850275297842577 -1.769946798070884 1.3079649373597142
Bq 3.695268054540456 -1.7991840461790032 1.340956147204483
Bq 3.6055085792966537 -1.8284212942871227 1.3739473570492517
Bq 3.5157491040528512 -1.8576585423952419 1.4069385668940209
Bq 3.4259896288090497 -1.886895790503361 1.4399297767387895
Bq 3.336230153565248 -1.91613303861148 1.4729209865835582
Bq 3.2464706783214456 -1.9453702867195992 1.505912196428327
Bq 3.156711203077643 -1.9746075348277183 1.538903406273096
Bq 3.0669517278338416 -2.0038447829358375 1.5718946161178649
Bq 2.977192252590039 -2.0330820310439566 1.6048858259626335
Bq 2.8874327773462376 -2.0623192791520757 1.6378770358074024
Bq 2.797673302102435 -2.091556527260195 1.6708682456521713
Bq 2.7079138268586336 -2.120793775368314 1.70385945549694
Bq 2.618154351614831 -2.150031023476433 1.7368506653417088
Bq 2.5283948763710296 -2.1792682715845526 1.7698418751864777
Bq 2.438635401127227 -2.2085055196926717 1.8028330850312464