%nproc=8
%mem=32GB
#P Ub3lyp/6-311++G(d,p) SCF(Tight) CPHF(Separate) Int(Grid=SuperFine) NMR geom=connectivity guess=mix

U_9_hexagons1195_tinker

0 2
C 6.76790001941332 0.9574820799821188 0.4795276650395683
C 5.541337117779774 0.34522059931920096 0.0746157726077129
C 7.975469397280633 0.3336069654528971 0.26086917284613864
C 4.290614001787284 0.9636082439028011 0.2822435957634348
C 5.590973159212429 -0.9460788330508576 -0.5663180441406783
C 3.0881212072523 0.3661491502143217 -0.10556661885240809
C 8.023588725446984 -0.9412855224976031 -0.3751997229695604
C 6.862972243556113 -1.5630532309076794 -0.7767805109085987
C 4.379618619867687 -1.5488403237894404 -0.9541638178594236
C 1.665067361400758 2.3481245009766267 0.5113774947249701
C 0.4396457445730956 2.97739806855883 0.5443351380545961
C 1.7813641590998837 0.9985852255059737 0.09645504328726505
C -0.7674253311274584 2.277561778610463 0.2949958746434496
C 3.1449606193190562 -0.9326933170757712 -0.7351578047021541
C 0.5870788697490906 0.27524483431222063 -0.18231406028764882
C 1.9138090506648073 -1.555014180992174 -1.1422171010393372
C -2.045915318557425 2.980783877154886 0.15797975055543453
C -0.7043672492208093 0.8717874073187175 0.08870409554028022
C -2.1498719719646817 4.382453302215481 0.32519176167504155
C -3.198812740237032 2.256158899631504 -0.26099353001714976
C -3.328315694126815 5.062237303893431 0.05161492903132148
C 0.7045490560701495 -0.9942607651646292 -0.866185873438783
C -1.9532031442743094 0.11405192684559773 0.0948400109645623
C -4.380491798624865 2.9750783777705845 -0.555845110172109
C -3.16238266869729 0.7864679725971991 -0.2634390730355972
C -4.449812509117481 4.35371503659764 -0.40950583097826776
C -2.0457700255554085 -1.273272556081264 0.5263054952870126
C -4.312092860284014 0.028245799324430727 -0.5394151606213525
C -1.0447384464857616 -1.9090133320770262 1.30667993620729
C -1.1552506119775212 -3.2515304849392854 1.6813800530326435
C -3.2329264940009956 -2.0214919488817396 0.2397171020030399
C -2.258565791862261 -4.0115342593934775 1.304434115063701
C -4.357243411571737 -1.3734373231300523 -0.3690307380802484
C -3.3274857591059925 -3.410303524204594 0.5920453633333731
C -5.509534028739488 -2.1369843715477304 -0.6923624843406744
C -4.501636319137136 -4.133878806586133 0.23928826545293477
C -5.565770637302788 -3.5024576130583416 -0.4026599610934608
H 6.729084501711246 1.9293971205990372 0.9636840922489297
H 8.900000953103094 0.8096268017448122 0.5716337053222803
H 4.288752926077382 1.9287379832755323 0.7768425468091544
H 8.984165330226595 -1.4188602508722863 -0.5400832651074103
H 6.89567017221254 -2.5351549593134193 -1.260706174303455
H 4.404153122643166 -2.523888067857378 -1.4343339959854564
H 2.553167573561982 2.9292439103747467 0.7265829290893665
H 0.4141893705543466 4.038213477049643 0.7574731823598921
H 1.9679880185542895 -2.492832321123372 -1.6873053103956686
H -1.2938683922629508 4.9516242314071945 0.664960302156447
H -3.377713848158015 6.137860187689529 0.18645041817448524
H -0.19744184810553128 -1.4851168041482357 -1.203763943783499
H -0.18277239277507804 -1.342353767540045 1.6308330499809967
H -5.264699818774289 2.448600039087168 -0.8922083966654286
H -5.3715733973746955 4.877684792970476 -0.6404825011981432
H -5.218365755388792 0.515578145087955 -0.8769452780494469
H -0.3660867282045345 -3.70147030389214 2.2752819218367493
H -2.32777281495157 -5.060021619354864 1.5780029454452313
H -6.3559112594410685 -1.6401060900341513 -1.1570565160540538
H -4.560585789181007 -5.188574197104405 0.49054003818510594
H -6.453125866326231 -4.071239514310768 -0.6618096213911852
Bq 4.8110880080621845 -2.4612471366745536 -0.26627005921700975
Bq 4.809439441234549 -2.3718048222598815 -0.22157828570597332
Bq 4.807790874406913 -2.2823625078452094 -0.1768865121949369
Bq 4.806142307579276 -2.192920193430538 -0.13219473868390047
Bq 4.80449374075164 -2.1034778790158657 -0.08750296517286407
Bq 4.802845173924005 -2.0140355646011936 -0.042811191661827674
Bq 4.801196607096369 -1.9245932501865215 0.0018805818492088067
Bq 4.799548040268733 -1.8351509357718496 0.04657235536024518
Bq 4.797899473441096 -1.7457086213571777 0.0912641288712816
Bq 4.79625090661346 -1.6562663069425057 0.13595590238231797
Bq 4.794602339785825 -1.5668239925278336 0.1806476758933544
Bq 4.792953772958189 -1.4773816781131615 0.22533944940439088
Bq 4.791305206130553 -1.3879393636984896 0.27003122291542736
Bq 4.789656639302917 -1.2984970492838177 0.3147229964264636
Bq 4.7880080724752805 -1.2090547348691456 0.3594147699375001
Bq 4.786359505647645 -1.1196124204544737 0.40410654344853647
Bq 4.784710938820009 -1.0301701060398016 0.44879831695957295
Bq 4.783062371992373 -0.9407277916251295 0.49349009047060943
Bq 4.781413805164737 -0.8512854772104577 0.5381818639816457
Bq 4.7797652383371005 -0.7618431627957856 0.5828736374926822
Bq 4.778116671509465 -0.6724008483811137 0.6275654110037185
Bq 4.776468104681829 -0.5829585339664416 0.672257184514755
Bq 4.774819537854193 -0.4935162195517695 0.7169489580257915
Bq 4.773170971026557 -0.4040739051370976 0.7616407315368279
Bq 4.771522404198921 -0.3146315907224255 0.8063325050478645
Bq 4.769873837371285 -0.22518927630775387 0.8510242785589006
Bq 4.768225270543649 -0.13574696189308177 0.895716052069937
Bq 4.766576703716013 -0.04630464747840968 0.9404078255809736
Bq 4.764928136888377 0.04313766693626242 0.98509959909201
Bq 4.763279570060741 0.13257998135093452 1.0297913726030465
Bq 4.761631003233105 0.22202229576560617 1.0744831461140827
Bq 4.759982436405469 0.31146461018027827 1.119174919625119
Bq 4.758333869577833 0.40090692459495036 1.1638666931361557
Bq 4.756685302750197 0.49034923900962246 1.208558466647192
Bq 4.755036735922561 0.5797915534242946 1.2532502401582286
Bq 4.753388169094925 0.6692338678389662 1.2979420136692648
Bq 4.751739602267289 0.7586761822536383 1.3426337871803011
Bq 4.750091035439653 0.8481184966683104 1.3873255606913377
Bq 4.7484424686120175 0.9375608110829825 1.432017334202374
Bq 4.746793901784382 1.0270031254976546 1.4767091077134107
Bq 4.910830586815528 -2.4628957035021894 -0.2592915055668703
Bq 4.909182019987892 -2.373453389087518 -0.2145997320558339
Bq 4.907533453160256 -2.2840110746728457 -0.16990795854479748
Bq 4.90588488633262 -2.1945687602581736 -0.12521618503376106
Bq 4.904236319504984 -2.1051264458435015 -0.08052441152272466
Bq 4.9025877526773485 -2.01568413142883 -0.03583263801168826
Bq 4.900939185849712 -1.9262418170141578 0.008859135499348247
Bq 4.899290619022076 -1.8367995025994857 0.05355090901038462
Bq 4.89764205219444 -1.7473571881848136 0.09824268252142104
Bq 4.895993485366804 -1.6579148737701417 0.1429344560324574
Bq 4.8943449185391685 -1.5684725593554698 0.18762622954349384
Bq 4.892696351711533 -1.4790302449407977 0.23231800305453032
Bq 4.891047784883896 -1.3895879305261256 0.2770097765655668
Bq 4.88939921805626 -1.3001456161114537 0.32170155007660306
Bq 4.887750651228624 -1.2107033016967816 0.36639332358763954
Bq 4.886102084400989 -1.1212609872821098 0.4110850970986759
Bq 4.884453517573353 -1.0318186728674377 0.4557768706097124
Bq 4.882804950745716 -0.9423763584527656 0.5004686441207489
Bq 4.88115638391808 -0.8529340440380937 0.5451604176317851
Bq 4.8795078170904445 -0.7634917296234216 0.5898521911428216
Bq 4.877859250262809 -0.6740494152087497 0.634543964653858
Bq 4.876210683435173 -0.5846071007940776 0.6792357381648945
Bq 4.874562116607536 -0.49516478637940553 0.723927511675931
Bq 4.8729135497799 -0.40572247196473343 0.7686192851869673
Bq 4.8712649829522645 -0.31628015755006134 0.8133110586980039
Bq 4.869616416124629 -0.22683784313538968 0.8580028322090401
Bq 4.867967849296993 -0.13739552872071759 0.9026946057200764
Bq 4.866319282469356 -0.04795321430604549 0.947386379231113
Bq 4.86467071564172 0.04148910010862661 0.9920781527421494
Bq 4.863022148814085 0.1309314145232987 1.036769926253186
Bq 4.861373581986449 0.22037372893797036 1.0814616997642221
Bq 4.859725015158813 0.30981604335264246 1.1261534732752585
Bq 4.858076448331176 0.39925835776731455 1.170845246786295
Bq 4.85642788150354 0.48870067218198665 1.2155370202973315
Bq 4.854779314675905 0.5781429865966587 1.260228793808368
Bq 4.853130747848269 0.6675853010113304 1.3049205673194042
Bq 4.851482181020633 0.7570276154260025 1.3496123408304406
Bq 4.849833614192997 0.8464699298406746 1.3943041143414772
Bq 4.8481850473653605 0.9359122442553467 1.4389958878525135
Bq 4.846536480537725 1.0253545586700188 1.4836876613635501
Bq 5.0105731655688714 -2.4645442703298257 -0.2523129519167309
Bq 5.008924598741236 -2.3751019559151536 -0.2076211784056945
Bq 5.0072760319136 -2.2856596415004815 -0.16292940489465807
Bq 5.005627465085964 -2.1962173270858094 -0.11823763138362164
Bq 5.003978898258327 -2.1067750126711378 -0.07354585787258522
Bq 5.0023303314306915 -2.0173326982564657 -0.02885408436154885
Bq 5.000681764603056 -1.9278903838417936 0.015837689149487633
Bq 4.99903319777542 -1.8384480694271215 0.060529462660524
Bq 4.997384630947784 -1.7490057550124496 0.10522123617156043
Bq 4.995736064120148 -1.6595634405977777 0.1499130096825968
Bq 4.994087497292512 -1.5701211261831056 0.19460478319363322
Bq 4.992438930464876 -1.4806788117684335 0.23929655670466976
Bq 4.99079036363724 -1.3912364973537616 0.28398833021570624
Bq 4.989141796809604 -1.3017941829390898 0.3286801037267425
Bq 4.987493229981968 -1.2123518685244177 0.373371877237779
Bq 4.985844663154332 -1.1229095541097458 0.41806365074881535
Bq 4.984196096326696 -1.0334672396950737 0.46275542425985183
Bq 4.98254752949906 -0.9440249252804016 0.5074471977708883
Bq 4.980898962671424 -0.8545826108657297 0.5521389712819246
Bq 4.979250395843788 -0.7651402964510576 0.596830744792961
Bq 4.977601829016152 -0.6756979820363858 0.6415225183039974
Bq 4.975953262188516 -0.5862556676217137 0.6862142918150339
Bq 4.97430469536088 -0.49681335320704156 0.7309060653260704
Bq 4.972656128533244 -0.4073710387923697 0.7755978388371068
Bq 4.971007561705608 -0.3179287243776976 0.8202896123481433
Bq 4.969358994877972 -0.22848640996302594 0.8649813858591795
Bq 4.967710428050336 -0.13904409554835384 0.9096731593702159
Bq 4.9660618612227 -0.049601781133681744 0.9543649328812525
Bq 4.964413294395064 0.03984053328099035 0.9990567063922888
Bq 4.9627647275674285 0.12928284769566245 1.0437484799033254
Bq 4.961116160739792 0.2187251621103341 1.0884402534143616
Bq 4.959467593912156 0.3081674765250062 1.133132026925398
Bq 4.95781902708452 0.3976097909396783 1.1778238004364345
Bq 4.956170460256884 0.4870521053543504 1.222515573947471
Bq 4.9545218934292485 0.5764944197690225 1.2672073474585075
Bq 4.952873326601613 0.6659367341836941 1.3118991209695436
Bq 4.951224759773976 0.7553790485983662 1.35659089448058
Bq 4.94957619294634 0.8448213630130383 1.4012826679916166
Bq 4.947927626118704 0.9342636774277104 1.445974441502653
Bq 4.946279059291069 1.0237059918423825 1.4906662150136896
Bq 5.110315744322215 -2.4661928371574615 -0.24533439826659148
Bq 5.1086671774945795 -2.3767505227427894 -0.20064262475555505
Bq 5.107018610666943 -2.2873082083281178 -0.15595085124451863
Bq 5.105370043839307 -2.1978658939134457 -0.1112590777334822
Bq 5.103721477011671 -2.1084235794987736 -0.0665673042224458
Bq 5.102072910184035 -2.0189812650841015 -0.021875530711409408
Bq 5.1004243433564 -1.9295389506694296 0.022816242799627073
Bq 5.098775776528763 -1.8400966362547577 0.06750801631066344
Bq 5.097127209701127 -1.7506543218400856 0.11219978982169987
Bq 5.095478642873491 -1.6612120074254135 0.15689156333273624
Bq 5.0938300760458555 -1.5717696930107417 0.20158333684377266
Bq 5.09218150921822 -1.4823273785960696 0.2462751103548091
Bq 5.090532942390584 -1.3928850641813975 0.29096688386584557
Bq 5.088884375562947 -1.3034427497667256 0.33565865737688183
Bq 5.087235808735311 -1.2140004353520535 0.3803504308879183
Bq 5.0855872419076755 -1.1245581209373816 0.4250422043989547
Bq 5.08393867508004 -1.0351158065227095 0.46973397790999116
Bq 5.082290108252404 -0.9456734921080374 0.5144257514210276
Bq 5.080641541424767 -0.8562311776933655 0.5591175249320639
Bq 5.078992974597131 -0.7667888632786934 0.6038092984431004
Bq 5.077344407769496 -0.6773465488640216 0.6485010719541368
Bq 5.07569584094186 -0.5879042344493495 0.6931928454651732
Bq 5.074047274114224 -0.4984619200346774 0.7378846189762098
Bq 5.072398707286587 -0.4090196056200055 0.7825763924872462
Bq 5.0707501404589514 -0.3195772912053334 0.8272681659982828
Bq 5.069101573631316 -0.23013497679066175 0.8719599395093189
Bq 5.06745300680368 -0.14069266237598965 0.9166517130203553
Bq 5.065804439976044 -0.051250347961317555 0.9613434865313919
Bq 5.064155873148408 0.03819196645335454 1.0060352600424283
Bq 5.0625073063207715 0.12763428086802664 1.0507270335534649
Bq 5.060858739493136 0.2170765952826983 1.095418807064501
Bq 5.0592101726655 0.3065189096973704 1.1401105805755374
Bq 5.057561605837864 0.3959612241120425 1.184802354086574
Bq 5.055913039010228 0.4854035385267146 1.2294941275976103
Bq 5.054264472182592 0.5748458529413867 1.274185901108647
Bq 5.052615905354956 0.6642881673560583 1.318877674619683
Bq 5.05096733852732 0.7537304817707304 1.3635694481307195
Bq 5.049318771699684 0.8431727961854025 1.408261221641756
Bq 5.047670204872048 0.9326151106000746 1.4529529951527924
Bq 5.046021638044412 1.0220574250147467 1.497644768663829
Bq 5.210058323075559 -2.4678414039850978 -0.23835584461645207
Bq 5.208409756247923 -2.3783990895704257 -0.19366407110541564
Bq 5.206761189420287 -2.2889567751557536 -0.14897229759437924
Bq 5.205112622592651 -2.1995144607410815 -0.10428052408334279
Bq 5.203464055765015 -2.1100721463264094 -0.05958875057230639
Bq 5.201815488937379 -2.0206298319117377 -0.014896977061270023
Bq 5.200166922109743 -1.9311875174970656 0.02979479644976646
Bq 5.198518355282107 -1.8417452030823935 0.07448656996080283
Bq 5.196869788454471 -1.7523028886677214 0.11917834347183931
Bq 5.195221221626835 -1.6628605742530496 0.16387011698287568
Bq 5.193572654799199 -1.5734182598383777 0.20856189049391205
Bq 5.191924087971563 -1.4839759454237056 0.25325366400494853
Bq 5.190275521143927 -1.3945336310090335 0.297945437515985
Bq 5.188626954316291 -1.3050913165943616 0.34263721102702127
Bq 5.186978387488655 -1.2156490021796895 0.38732898453805775
Bq 5.185329820661019 -1.1262066877650176 0.4320207580490941
Bq 5.183681253833383 -1.0367643733503455 0.4767125315601306
Bq 5.182032687005747 -0.9473220589356735 0.5214043050711671
Bq 5.180384120178111 -0.8578797445210016 0.5660960785822033
Bq 5.178735553350475 -0.7684374301063295 0.6107878520932398
Bq 5.1770869865228395 -0.6789951156916576 0.6554796256042762
Bq 5.175438419695203 -0.5895528012769855 0.7001713991153127
Bq 5.173789852867567 -0.5001104868623134 0.7448631726263493
Bq 5.172141286039931 -0.41066817244764175 0.7895549461373856
Bq 5.170492719212295 -0.32122585803296966 0.8342467196484222
Bq 5.1688441523846596 -0.231783543618298 0.8789384931594584
Bq 5.167195585557023 -0.1423412292036259 0.9236302666704947
Bq 5.165547018729387 -0.05289891478895381 0.9683220401815313
Bq 5.163898451901751 0.03654339962571829 1.0130138136925677
Bq 5.162249885074115 0.12598571404039038 1.0577055872036043
Bq 5.16060131824648 0.21542802845506204 1.1023973607146405
Bq 5.158952751418844 0.30487034286973413 1.1470891342256768
Bq 5.157304184591207 0.39431265728440623 1.1917809077367134
Bq 5.155655617763571 0.48375497169907833 1.2364726812477498
Bq 5.1540070509359355 0.5731972861137504 1.2811644547587864
Bq 5.1523584841083 0.6626396005284221 1.3258562282698225
Bq 5.150709917280664 0.7520819149430942 1.370548001780859
Bq 5.149061350453027 0.8415242293577663 1.4152397752918955
Bq 5.147412783625391 0.9309665437724384 1.4599315488029319
Bq 5.1457642167977555 1.0204088581871105 1.5046233223139684
Bq 5.309800901828902 -2.4694899708127336 -0.23137729096631265
Bq 5.3081523350012665 -2.3800476563980615 -0.18668551745527623
Bq 5.306503768173631 -2.2906053419833894 -0.1419937439442398
Bq 5.304855201345994 -2.2011630275687173 -0.09730197043320338
Bq 5.303206634518358 -2.1117207131540456 -0.05261019692216698
Bq 5.301558067690722 -2.0222783987393735 -0.007918423411130582
Bq 5.2999095008630865 -1.9328360843247014 0.0367733500999059
Bq 5.298260934035451 -1.8433937699100296 0.08146512361094227
Bq 5.296612367207814 -1.7539514554953577 0.1261568971219787
Bq 5.294963800380178 -1.6645091410806856 0.17084867063301507
Bq 5.293315233552542 -1.5750668266660135 0.2155404441440515
Bq 5.291666666724907 -1.4856245122513414 0.26023221765508797
Bq 5.290018099897271 -1.3961821978366695 0.30492399116612445
Bq 5.288369533069635 -1.3067398834219977 0.3496157646771607
Bq 5.286720966241998 -1.2172975690073256 0.3943075381881972
Bq 5.2850723994143625 -1.1278552545926537 0.43899931169923356
Bq 5.283423832586727 -1.0384129401779816 0.48369108521027004
Bq 5.281775265759091 -0.9489706257633095 0.5283828587213065
Bq 5.280126698931455 -0.8595283113486376 0.5730746322323428
Bq 5.278478132103818 -0.7700859969339655 0.6177664057433793
Bq 5.2768295652761825 -0.6806436825192936 0.6624581792544156
Bq 5.275180998448547 -0.5912013681046215 0.7071499527654521
Bq 5.273532431620911 -0.5017590536899494 0.7518417262764887
Bq 5.271883864793275 -0.41231673927527757 0.7965334997875251
Bq 5.270235297965638 -0.32287442486060547 0.8412252732985617
Bq 5.268586731138003 -0.23343211044593382 0.8859170468095978
Bq 5.266938164310367 -0.14398979603126172 0.9306088203206342
Bq 5.265289597482731 -0.05454748161658962 0.9753005938316708
Bq 5.263641030655095 0.034894832798082476 1.0199923673427072
Bq 5.261992463827459 0.12433714721275457 1.0646841408537437
Bq 5.260343896999823 0.21377946162742623 1.10937591436478
Bq 5.258695330172187 0.3032217760420983 1.1540676878758163
Bq 5.257046763344551 0.3926640904567704 1.1987594613868529
Bq 5.255398196516915 0.4821064048714425 1.2434512348978892
Bq 5.253749629689279 0.5715487192861146 1.2881430084089258
Bq 5.252101062861643 0.6609910337007863 1.332834781919962
Bq 5.250452496034007 0.7504333481154584 1.3775265554309983
Bq 5.248803929206371 0.8398756625301305 1.422218328942035
Bq 5.247155362378735 0.9293179769448026 1.4669101024530713
Bq 5.245506795551099 1.0187602913594747 1.5116018759641079
Bq 5.409543480582246 -2.4711385376403694 -0.2243987373161732
Bq 5.40789491375461 -2.3816962232256977 -0.1797069638051368
Bq 5.406246346926974 -2.2922539088110256 -0.1350151902941004
Bq 5.404597780099338 -2.2028115943963535 -0.09032341678306394
Bq 5.402949213271702 -2.1133692799816814 -0.04563164327202754
Bq 5.401300646444066 -2.0239269655670094 -0.0009398697609911411
Bq 5.3996520796164305 -1.9344846511523375 0.04375190375004534
Bq 5.398003512788794 -1.8450423367376656 0.08844367726108171
Bq 5.396354945961158 -1.7556000223229935 0.13313545077211814
Bq 5.394706379133522 -1.6661577079083214 0.1778272242831545
Bq 5.393057812305886 -1.5767153934936495 0.22251899779419093
Bq 5.3914092454782505 -1.4872730790789774 0.2672107713052274
Bq 5.389760678650614 -1.3978307646643056 0.3119025448162639
Bq 5.388112111822978 -1.3083884502496337 0.35659431832730015
Bq 5.386463544995342 -1.2189461358349616 0.40128609183833663
Bq 5.384814978167706 -1.1295038214202897 0.445977865349373
Bq 5.383166411340071 -1.0400615070056176 0.4906696388604095
Bq 5.381517844512434 -0.9506191925909455 0.535361412371446
Bq 5.379869277684798 -0.8611768781762736 0.5800531858824822
Bq 5.378220710857162 -0.7717345637616015 0.6247449593935187
Bq 5.376572144029526 -0.6822922493469297 0.6694367329045551
Bq 5.374923577201891 -0.5928499349322576 0.7141285064155916
Bq 5.373275010374254 -0.5034076205175855 0.7588202799266279
Bq 5.371626443546618 -0.4139653061029134 0.8035120534376643
Bq 5.369977876718982 -0.3245229916882413 0.8482038269487009
Bq 5.3683293098913465 -0.23508067727356963 0.892895600459737
Bq 5.366680743063711 -0.14563836285889753 0.9375873739707734
Bq 5.365032176236075 -0.05619604844422543 0.98227914748181
Bq 5.363383609408438 0.033246265970446665 1.0269709209928464
Bq 5.361735042580802 0.12268858038511876 1.071662694503883
Bq 5.3600864757531665 0.21213089479979041 1.116354468014919
Bq 5.358437908925531 0.3015732092144625 1.1610462415259555
Bq 5.356789342097895 0.3910155236291346 1.205738015036992
Bq 5.355140775270258 0.4804578380438067 1.2504297885480284
Bq 5.353492208442622 0.5699001524584788 1.295121562059065
Bq 5.351843641614987 0.6593424668731505 1.3398133355701012
Bq 5.350195074787351 0.7487847812878226 1.3845051090811376
Bq 5.348546507959715 0.8382270957024947 1.4291968825921741
Bq 5.346897941132079 0.9276694101171667 1.4738886561032105
Bq 5.3452493743044425 1.0171117245318388 1.518580429614247
Bq 5.509286059335589 -2.4727871044680056 -0.2174201836660338
Bq 5.507637492507953 -2.3833447900533336 -0.17272841015499737
Bq 5.505988925680318 -2.2939024756386615 -0.12803663664396098
Bq 5.504340358852682 -2.2044601612239894 -0.08334486313292452
Bq 5.502691792025046 -2.1150178468093177 -0.038653089621888126
Bq 5.501043225197409 -2.0255755323946456 0.0060386838891483
Bq 5.4993946583697735 -1.9361332179799735 0.05073045740018478
Bq 5.497746091542138 -1.8466909035653014 0.09542223091122115
Bq 5.496097524714502 -1.7572485891506295 0.14011400442225752
Bq 5.494448957886866 -1.6678062747359577 0.1848057779332939
Bq 5.49280039105923 -1.5783639603212856 0.22949755144433037
Bq 5.4911518242315935 -1.4889216459066135 0.27418932495536685
Bq 5.489503257403958 -1.3994793314919414 0.31888109846640333
Bq 5.487854690576322 -1.3100370170772695 0.3635728719774396
Bq 5.486206123748686 -1.2205947026625974 0.4082646454884761
Bq 5.48455755692105 -1.1311523882479255 0.45295641899951244
Bq 5.482908990093414 -1.0417100738332534 0.4976481925105489
Bq 5.481260423265778 -0.9522677594185813 0.5423399660215854
Bq 5.479611856438142 -0.8628254450039095 0.5870317395326217
Bq 5.477963289610506 -0.7733831305892374 0.6317235130436581
Bq 5.47631472278287 -0.6839408161745655 0.6764152865546945
Bq 5.474666155955234 -0.5944985017598934 0.721107060065731
Bq 5.473017589127598 -0.5050561873452213 0.7657988335767674
Bq 5.471369022299962 -0.41561387293054963 0.8104906070878037
Bq 5.469720455472326 -0.32617155851587754 0.8551823805988403
Bq 5.46807188864469 -0.23672924410120588 0.8998741541098765
Bq 5.466423321817054 -0.14728692968653379 0.9445659276209128
Bq 5.464774754989418 -0.05784461527186169 0.9892577011319494
Bq 5.463126188161782 0.03159769914281041 1.0339494746429858
Bq 5.461477621334146 0.1210400135574825 1.0786412481540224
Bq 5.4598290545065105 0.21048232797215416 1.1233330216650586
Bq 5.458180487678874 0.29992464238682626 1.168024795176095
Bq 5.456531920851238 0.38936695680149835 1.2127165686871315
Bq 5.454883354023602 0.47880927121617045 1.2574083421981679
Bq 5.453234787195966 0.5682515856308425 1.3021001157092045
Bq 5.4515862203683305 0.6576939000455142 1.3467918892202406
Bq 5.449937653540694 0.7471362144601863 1.391483662731277
Bq 5.448289086713058 0.8365785288748584 1.4361754362423136
Bq 5.446640519885422 0.9260208432895305 1.48086720975335
Bq 5.444991953057786 1.0154631577042026 1.5255589832643865
Bq 5.609028638088933 -2.4744356712956415 -0.2104416300158944
Bq 5.607380071261297 -2.3849933568809694 -0.16574985650485796
Bq 5.6057315044336615 -2.2955510424662977 -0.12105808299382154
Bq 5.604082937606025 -2.2061087280516256 -0.07636630948278511
Bq 5.602434370778389 -2.1166664136369535 -0.03167453597174871
Bq 5.600785803950753 -2.0272240992222814 0.013017237539287685
Bq 5.599137237123117 -1.9377817848076093 0.057709011050324166
Bq 5.597488670295482 -1.8483394703929374 0.10240078456136054
Bq 5.595840103467845 -1.7588971559782656 0.14709255807239696
Bq 5.594191536640209 -1.6694548415635935 0.19178433158343333
Bq 5.592542969812573 -1.5800125271489214 0.2364761050944697
Bq 5.5908944029849375 -1.4905702127342493 0.2811678786055063
Bq 5.589245836157302 -1.4011278983195774 0.32585965211654266
Bq 5.587597269329665 -1.3116855839049055 0.37055142562757903
Bq 5.585948702502029 -1.2222432694902334 0.4152431991386154
Bq 5.584300135674393 -1.1328009550755616 0.4599349726496518
Bq 5.5826515688467575 -1.0433586406608895 0.5046267461606884
Bq 5.581003002019122 -0.9539163262462174 0.5493185196717247
Bq 5.579354435191485 -0.8644740118315455 0.5940102931827611
Bq 5.577705868363849 -0.7750316974168734 0.6387020666937975
Bq 5.576057301536213 -0.6855893830022015 0.6833938402048338
Bq 5.574408734708578 -0.5961470685875294 0.7280856137158704
Bq 5.572760167880942 -0.5067047541728573 0.7727773872269068
Bq 5.571111601053306 -0.41726243975818544 0.8174691607379432
Bq 5.569463034225669 -0.32782012534351335 0.8621609342489798
Bq 5.567814467398033 -0.2383778109288417 0.9068527077600159
Bq 5.566165900570398 -0.1489354965141696 0.9515444812710523
Bq 5.564517333742762 -0.0594931820994975 0.9962362547820889
Bq 5.562868766915126 0.029949132315174598 1.0409280282931253
Bq 5.561220200087489 0.1193914467298467 1.0856198018041618
Bq 5.5595716332598535 0.20883376114451835 1.130311575315198
Bq 5.557923066432218 0.29827607555919045 1.1750033488262344
Bq 5.556274499604582 0.38771838997386254 1.219695122337271
Bq 5.554625932776946 0.47716070438853464 1.2643868958483073
Bq 5.55297736594931 0.5666030188032067 1.309078669359344
Bq 5.5513287991216735 0.6560453332178784 1.35377044287038
Bq 5.549680232294038 0.7454876476325505 1.3984622163814164
Bq 5.548031665466402 0.8349299620472226 1.443153989892453
Bq 5.546383098638766 0.9243722764618947 1.4878457634034894
Bq 5.54473453181113 1.0138145908765668 1.532537536914526
Bq 5.708771216842276 -2.4760842381232773 -0.20346307636575495
Bq 5.70712265001464 -2.3866419237086056 -0.15877130285471855
Bq 5.7054740831870046 -2.2971996092939335 -0.11407952934368212
Bq 5.703825516359369 -2.2077572948792614 -0.06938775583264567
Bq 5.702176949531733 -2.1183149804645893 -0.0246959823216093
Bq 5.700528382704096 -2.0288726660499177 0.019995791189427126
Bq 5.69887981587646 -1.9394303516352456 0.0646875647004636
Bq 5.697231249048825 -1.8499880372205735 0.10937933821149998
Bq 5.695582682221189 -1.7605457228059014 0.1540711117225364
Bq 5.693934115393553 -1.6711034083912295 0.19876288523357277
Bq 5.692285548565917 -1.5816610939765576 0.24345465874460914
Bq 5.6906369817382805 -1.4922187795618855 0.2881464322556456
Bq 5.688988414910645 -1.4027764651472134 0.3328382057666821
Bq 5.687339848083009 -1.3133341507325416 0.37752997927771836
Bq 5.685691281255373 -1.2238918363178695 0.42222175278875484
Bq 5.684042714427737 -1.1344495219031976 0.4669135262997912
Bq 5.6823941476001005 -1.0450072074885255 0.5116052998108277
Bq 5.680745580772465 -0.9555648930738534 0.5562970733218642
Bq 5.679097013944829 -0.8661225786591815 0.6009888468329004
Bq 5.677448447117193 -0.7766802642445094 0.6456806203439369
Bq 5.675799880289557 -0.6872379498298375 0.6903723938549733
Bq 5.6741513134619215 -0.5977956354151654 0.7350641673660099
Bq 5.672502746634285 -0.5083533210004934 0.7797559408770462
Bq 5.670854179806649 -0.41891100658582126 0.8244477143880826
Bq 5.669205612979013 -0.32946869217114916 0.8691394878991192
Bq 5.667557046151377 -0.2400263777564775 0.9138312614101554
Bq 5.6659084793237415 -0.1505840633418054 0.9585230349211917
Bq 5.664259912496105 -0.06114174892713331 1.0032148084322283
Bq 5.662611345668469 0.028300565487538787 1.0479065819432647
Bq 5.660962778840833 0.11774287990221088 1.0925983554543013
Bq 5.659314212013197 0.20718519431688254 1.1372901289653374
Bq 5.657665645185562 0.29662750873155463 1.1819819024763738
Bq 5.656017078357925 0.38606982314622673 1.2266736759874104
Bq 5.654368511530289 0.47551213756089883 1.2713654494984468
Bq 5.652719944702653 0.5649544519755709 1.3160572230094834
Bq 5.6510713778750175 0.6543967663902426 1.3607489965205195
Bq 5.649422811047382 0.7438390808049147 1.4054407700315559
Bq 5.647774244219745 0.8332813952195868 1.4501325435425925
Bq 5.646125677392109 0.9227237096342589 1.4948243170536288
Bq 5.644477110564473 1.012166024048931 1.5395160905646654
Bq 5.80851379559562 -2.4777328049509135 -0.19648452271561556
Bq 5.806865228767984 -2.3882904905362414 -0.15179274920457914
Bq 5.8052166619403485 -2.2988481761215693 -0.10710097569354271
Bq 5.803568095112713 -2.2094058617068972 -0.062409202182506285
Bq 5.801919528285076 -2.1199635472922256 -0.01771742867146986
Bq 5.80027096145744 -2.0305212328775535 0.02697434483956651
Bq 5.798622394629804 -1.9410789184628814 0.07166611835060299
Bq 5.7969738278021685 -1.8516366040482093 0.11635789186163936
Bq 5.795325260974533 -1.7621942896335374 0.1610496653726758
Bq 5.793676694146896 -1.6727519752188655 0.20574143888371216
Bq 5.79202812731926 -1.5833096608041934 0.2504332123947486
Bq 5.790379560491624 -1.4938673463895213 0.29512498590578506
Bq 5.788730993663989 -1.4044250319748495 0.33981675941682155
Bq 5.787082426836353 -1.3149827175601776 0.3845085329278578
Bq 5.785433860008716 -1.2255404031455055 0.4292003064388943
Bq 5.78378529318108 -1.1360980887308336 0.47389207994993066
Bq 5.7821367263534444 -1.0466557743161615 0.5185838534609671
Bq 5.780488159525809 -0.9572134599014894 0.5632756269720036
Bq 5.778839592698173 -0.8677711454868176 0.6079674004830399
Bq 5.777191025870536 -0.7783288310721455 0.6526591739940764
Bq 5.7755424590429 -0.6888865166574736 0.6973509475051127
Bq 5.7738938922152645 -0.5994442022428015 0.7420427210161493
Bq 5.772245325387629 -0.5100018878281294 0.7867344945271857
Bq 5.770596758559993 -0.4205595734134575 0.8314262680382221
Bq 5.768948191732356 -0.3311172589987854 0.8761180415492587
Bq 5.76729962490472 -0.24167494458411376 0.9208098150602948
Bq 5.765651058077085 -0.15223263016944166 0.9655015885713312
Bq 5.764002491249449 -0.06279031575476957 1.0101933620823678
Bq 5.762353924421813 0.02665199865990253 1.0548851355934041