%nproc=8
%mem=32GB
#P Ub3lyp/6-311++G(d,p) SCF(Tight) CPHF(Separate) Int(Grid=SuperFine) NMR geom=connectivity guess=mix

U_9_hexagons1188_tinker

0 1
C 6.836535725642684 -1.9649979152981008 0.24505588237253073
C 5.809443450931748 -0.983310129982794 0.11846327954027926
C 8.147739360063994 -1.6603179818243847 -0.05275802398310359
C 4.456711335620366 -1.266705209792358 0.4193747622805084
C 6.16556645230445 0.3394673861471028 -0.33151309907811016
C 3.4481694884674097 -0.3150764186042892 0.2956833849608304
C 8.49983577981426 -0.3534046689340055 -0.49537254169455025
C 7.534381250376676 0.6196966722141711 -0.6312238881879385
C 5.146053614490835 1.300783687785793 -0.46145301264180894
C 1.6298828977983872 -1.8071272700908638 1.1967672497433546
C 0.29173658462250024 -2.026950155426044 1.5185372814689586
C 2.0377180407441307 -0.59588589966144 0.6076776987931816
C -0.6816257330330933 -1.0843614410893745 1.1907941584697477
C 3.8078136991900324 1.009117365749855 -0.16742380357283143
C 1.0445444102963157 0.39402491559966746 0.33406576134856575
C 2.7912200609029667 2.003555595019304 -0.2952444993216358
C -0.34239814935598345 0.11196906031001344 0.5328891136539479
C -2.598992083755656 -1.418164661580896 -1.1069909066106072
C -3.175642280485563 -2.653774724085756 -1.4494518105808225
C -3.3298839861556853 -0.4232678802744093 -0.4419553944369645
C -4.501758593264814 -2.9225988482964684 -1.1524800243399285
C 1.45636272496472 1.7304578900435854 -0.06298620102242877
C -1.3669047857201009 1.1201180651843392 0.17075795976521047
C 0.45882584976436 2.7551596700785916 -0.09268570958050605
C -4.736515440452049 -0.6433120819801011 -0.2605187826966671
C -2.734229537584152 0.8694971443110859 -0.03469705516641388
C -5.318041535893853 -1.9170074494984368 -0.5732908376864684
C -5.5937151548596376 0.4265042574593347 0.16642630099437886
C -6.708411457557383 -2.1231205225655465 -0.33195542452839166
C -0.8865219736485269 2.49803177655047 0.06526629897905262
C -3.6781624100369443 1.9810439590741071 0.12400203428655707
C -1.8429032322133176 3.582101588082716 0.07917368156777482
C -6.957172877460544 0.18148445049580825 0.37142200723114066
C -5.027095553744911 1.7381593163482072 0.26999875594170775
C -7.5043640586764555 -1.096487129072287 0.14540102586931347
C -3.170913236022403 3.334206034453408 0.17282713251226078
H 6.566015901840611 -2.9614714342476773 0.5833016809603977
H 8.920115836078983 -2.4159069468957646 0.04890541763200709
H 4.222028872522427 -2.2742960272436457 0.745076663874787
H 9.536513263402039 -0.1293969447809601 -0.7258689276573016
H 7.799332579711912 1.6173954982657737 -0.9697174606213681
H 5.402749443771198 2.300058877732591 -0.8039242597368853
H 2.360538761866531 -2.5670062013207624 1.4457875307964079
H 0.002981843673750517 -2.9403023257205843 2.028542992709405
H -1.7151679326759983 -1.2798140480720068 1.4434368551403576
H -1.5597710710214088 -1.242622491770342 -1.3515396874495378
H 3.0880660764853056 3.0115714157558524 -0.5727211273062512
H -2.566732572205413 -3.4010095552974944 -1.948179134462467
H -4.940084012421007 -3.8868476097462326 -1.3918865853697882
H 0.7842947728488417 3.7806566906688084 -0.24722387239738047
H -7.136083533520999 -3.097311008122578 -0.5492968954701472
H -1.4618553760082662 4.59847579857385 0.048011633655995915
H -7.599716408794088 0.9970338778194626 0.6899520123067642
H -5.695279862721044 2.5735755530080713 0.46242049915998057
H -8.562223785430369 -1.2645989878367232 0.32009856321572594
H -3.8894445539540934 4.144815610776688 0.24930872784303804
Bq 7.791702334352319 2.196690050569625 -0.08432556996473961
Bq 7.710668576139782 2.14526725101903 -0.05623240858458378
Bq 7.629634817927246 2.093844451468435 -0.028139247204427953
Bq 7.548601059714709 2.0424216519178398 -4.608582427212404e-05
Bq 7.467567301502172 1.9909988523672444 0.028047075555883705
Bq 7.386533543289636 1.9395760528166492 0.056140236936039534
Bq 7.3054997850770995 1.888153253266054 0.08423339831619536
Bq 7.224466026864563 1.836730453715459 0.11232655969635141
Bq 7.143432268652027 1.7853076541648638 0.14041972107650724
Bq 7.06239851043949 1.7338848546142687 0.16851288245666307
Bq 6.981364752226954 1.6824620550636735 0.1966060438368189
Bq 6.900330994014417 1.6310392555130784 0.22469920521697473
Bq 6.81929723580188 1.5796164559624832 0.25279236659713056
Bq 6.738263477589344 1.528193656411888 0.2808855279772864
Bq 6.657229719376807 1.4767708568612927 0.3089786893574422
Bq 6.576195961164271 1.4253480573106978 0.33707185073759804
Bq 6.495162202951734 1.3739252577601027 0.3651650121177539
Bq 6.414128444739197 1.3225024582095073 0.3932581734979097
Bq 6.333094686526661 1.2710796586589124 0.42135133487806575
Bq 6.252060928314124 1.219656859108317 0.44944449625822136
Bq 6.1710271701015875 1.168234059557722 0.4775376576383774
Bq 6.0899934118890515 1.116811260007127 0.505630819018533
Bq 6.008959653676515 1.0653884604565318 0.5337239803986891
Bq 5.927925895463978 1.0139656609059364 0.5618171417788449
Bq 5.846892137251442 0.9625428613553413 0.5899103031590007
Bq 5.765858379038905 0.9111200618047464 0.6180034645391566
Bq 5.684824620826368 0.8596972622541512 0.6460966259193124
Bq 5.603790862613832 0.8082744627035561 0.6741897872994682
Bq 5.522757104401295 0.7568516631529607 0.702282948679624
Bq 5.441723346188758 0.7054288636023656 0.7303761100597801
Bq 5.360689587976222 0.6540060640517706 0.7584692714399357
Bq 5.279655829763685 0.6025832645011755 0.7865624328200918
Bq 5.198622071551148 0.5511604649505804 0.8146555942002474
Bq 5.117588313338612 0.499737665399985 0.8427487555804034
Bq 5.0365545551260755 0.44831486584938984 0.8708419169605592
Bq 4.955520796913539 0.3968920662987949 0.898935078340715
Bq 4.874487038701003 0.3454692667481998 0.9270282397208709
Bq 4.793453280488467 0.29404646719760463 0.9551214011010267
Bq 4.712419522275929 0.24262366764700927 0.9832145624811826
Bq 4.631385764063393 0.19120086809641434 1.0113077238613384
Bq 7.8483372005049965 2.1156562923570883 -0.06929154303179641
Bq 7.76730344229246 2.064233492806493 -0.04119838165164058
Bq 7.686269684079924 2.012810693255898 -0.01310522027148453
Bq 7.605235925867387 1.9613878937053029 0.014987941108671299
Bq 7.524202167654851 1.909965094154708 0.04308110248882713
Bq 7.443168409442314 1.8585422946041128 0.07117426386898296
Bq 7.362134651229777 1.8071194950535174 0.09926742524913879
Bq 7.281100893017241 1.7556966955029223 0.12736058662929461
Bq 7.200067134804704 1.7042738959523274 0.15545374800945044
Bq 7.119033376592167 1.6528510964017322 0.18354690938960627
Bq 7.037999618379631 1.601428296851137 0.2116400707697621
Bq 6.956965860167094 1.5500054973005417 0.23973323214991793
Bq 6.875932101954557 1.4985826977499466 0.26782639353007376
Bq 6.794898343742021 1.4471598981993514 0.2959195549102296
Bq 6.7138645855294845 1.3957370986487563 0.3240127162903854
Bq 6.6328308273169485 1.3443142990981611 0.35210587767054125
Bq 6.551797069104412 1.292891499547566 0.3801990390506971
Bq 6.470763310891875 1.2414686999969708 0.4082922004308531
Bq 6.389729552679339 1.1900459004463757 0.43638536181100895
Bq 6.308695794466802 1.1386231008957806 0.4644785231911648
Bq 6.227662036254265 1.0872003013451854 0.4925716845713206
Bq 6.146628278041729 1.0357775017945903 0.5206648459514764
Bq 6.065594519829192 0.9843547022439951 0.5487580073316325
Bq 5.984560761616655 0.9329319026933998 0.5768511687117881
Bq 5.903527003404119 0.8815091031428046 0.6049443300919441
Bq 5.822493245191582 0.8300863035922097 0.6330374914720998
Bq 5.741459486979045 0.7786635040416146 0.6611306528522558
Bq 5.660425728766509 0.7272407044910194 0.6892238142324114
Bq 5.5793919705539725 0.675817904940424 0.7173169756125675
Bq 5.498358212341436 0.6243951053898289 0.7454101369927233
Bq 5.4173244541289 0.572972305839234 0.7735032983728791
Bq 5.336290695916363 0.5215495062886388 0.801596459753035
Bq 5.255256937703826 0.4701267067380437 0.8296896211331908
Bq 5.17422317949129 0.4187039071874483 0.8577827825133468
Bq 5.093189421278753 0.3672811076368532 0.8858759438935024
Bq 5.012155663066216 0.31585830808625825 0.9139691052736583
Bq 4.93112190485368 0.2644355085356631 0.9420622666538141
Bq 4.850088146641144 0.21301270898506797 0.9701554280339699
Bq 4.769054388428606 0.1615899094344726 0.9982485894141258
Bq 4.68802063021607 0.1101671098838779 1.0263417507942816
Bq 7.904972066657674 2.034622534144552 -0.05425751609885299
Bq 7.823938308445138 1.9831997345939567 -0.026164354718697158
Bq 7.742904550232601 1.9317769350433616 0.0019288066614586707
Bq 7.661870792020064 1.8803541354927664 0.0300219680416145
Bq 7.580837033807528 1.8289313359421713 0.05811512942177033
Bq 7.499803275594991 1.7775085363915761 0.08620829080192616
Bq 7.418769517382454 1.7260857368409808 0.11430145218208199
Bq 7.337735759169918 1.6746629372903856 0.14239461356223782
Bq 7.2567020009573815 1.6232401377397907 0.17048777494239364
Bq 7.1756682427448455 1.5718173381891956 0.19858093632254947
Bq 7.094634484532309 1.5203945386386004 0.22667409770270552
Bq 7.013600726319772 1.4689717390880053 0.25476725908286135
Bq 6.932566968107236 1.4175489395374101 0.2828604204630172
Bq 6.851533209894699 1.366126139986815 0.310953581843173
Bq 6.770499451682162 1.3147033404362198 0.33904674322332884
Bq 6.689465693469626 1.2632805408856247 0.36713990460348467
Bq 6.608431935257089 1.2118577413350295 0.3952330659836405
Bq 6.527398177044552 1.1604349417844342 0.4233262273637963
Bq 6.446364418832016 1.1090121422338393 0.45141938874395215
Bq 6.365330660619479 1.057589342683244 0.479512550124108
Bq 6.284296902406942 1.006166543132649 0.5076057115042638
Bq 6.203263144194406 0.9547437435820538 0.5356988728844196
Bq 6.1222293859818695 0.9033209440314587 0.5637920342645755
Bq 6.041195627769333 0.8518981444808633 0.5918851956447315
Bq 5.960161869556797 0.8004753449302682 0.6199783570248871
Bq 5.87912811134426 0.7490525453796733 0.6480715184050432
Bq 5.798094353131724 0.6976297458290781 0.6761646797851988
Bq 5.717060594919187 0.646206946278483 0.7042578411653548
Bq 5.63602683670665 0.5947841467278876 0.7323510025455107
Bq 5.554993078494113 0.5433613471772925 0.7604441639256665
Bq 5.473959320281577 0.49193854762669753 0.7885373253058221
Bq 5.39292556206904 0.4405157480761024 0.8166304866859782
Bq 5.311891803856503 0.38909294852550724 0.844723648066134
Bq 5.230858045643967 0.3376701489749119 0.8728168094462898
Bq 5.14982428743143 0.28624734942431673 0.9009099708264457
Bq 5.0687905292188935 0.2348245498737218 0.9290031322066015
Bq 4.9877567710063575 0.18340175032312644 0.9570962935867575
Bq 4.9067230127938215 0.1319789507725313 0.9851894549669133
Bq 4.825689254581284 0.08055615122193616 1.0132826163470692
Bq 4.744655496368748 0.029133351671341012 1.041375777727225
Bq 7.961606932810351 1.9535887759320152 -0.039223489165909786
Bq 7.880573174597815 1.90216597638142 -0.011130327785753957
Bq 7.7995394163852785 1.850743176830825 0.01696283359440187
Bq 7.718505658172742 1.7993203772802298 0.0450559949745577
Bq 7.637471899960206 1.7478975777296346 0.07314915635471353
Bq 7.556438141747669 1.6964747781790395 0.10124231773486958
Bq 7.475404383535133 1.6450519786284443 0.1293354791150254
Bq 7.394370625322596 1.5936291790778492 0.15742864049518124
Bq 7.313336867110059 1.542206379527254 0.18552180187533707
Bq 7.232303108897523 1.490783579976659 0.2136149632554929
Bq 7.151269350684986 1.4393607804260637 0.24170812463564872
Bq 7.070235592472449 1.3879379808754686 0.26980128601580455
Bq 6.989201834259913 1.3365151813248735 0.2978944473959604
Bq 6.908168076047376 1.2850923817742783 0.3259876087761162
Bq 6.827134317834839 1.2336695822236832 0.35408077015627226
Bq 6.746100559622303 1.182246782673088 0.38217393153642787
Bq 6.6650668014097665 1.1308239831224929 0.4102670929165839
Bq 6.58403304319723 1.0794011835718977 0.4383602542967395
Bq 6.502999284984694 1.0279783840213026 0.4664534156768956
Bq 6.421965526772157 0.9765555844707074 0.4945465770570512
Bq 6.34093176855962 0.9251327849201123 0.5226397384372072
Bq 6.259898010347084 0.8737099853695172 0.5507328998173628
Bq 6.178864252134547 0.822287185818922 0.5788260611975189
Bq 6.09783049392201 0.7708643862683267 0.6069192225776747
Bq 6.016796735709474 0.7194415867177315 0.6350123839578306
Bq 5.935762977496938 0.6680187871671366 0.6631055453379864
Bq 5.854729219284401 0.6165959876165414 0.6911987067181422
Bq 5.773695461071864 0.5651731880659463 0.719291868098298
Bq 5.692661702859328 0.5137503885153509 0.7473850294784539
Bq 5.6116279446467905 0.4623275889647558 0.7754781908586099
Bq 5.5305941864342545 0.41090478941416086 0.8035713522387655
Bq 5.4495604282217185 0.3594819898635657 0.8316645136189216
Bq 5.368526670009182 0.3080591903129706 0.8597576749990772
Bq 5.287492911796645 0.2566363907623752 0.8878508363792332
Bq 5.206459153584109 0.20521359121178007 0.9159439977593891
Bq 5.125425395371572 0.15379079166118514 0.9440371591395449
Bq 5.044391637159035 0.10236799211059 0.9721303205197007
Bq 4.963357878946499 0.050945192559994856 1.0002234818998565
Bq 4.882324120733962 -0.0004776069906002878 1.0283166432800124
Bq 4.801290362521425 -0.05190040654119543 1.0564098046601682
Bq 8.018241798963029 1.8725550177194787 -0.024189462232966585
Bq 7.937208040750493 1.8211322181688836 0.0039036991471894655
Bq 7.856174282537956 1.7697094186182885 0.031996860527345294
Bq 7.77514052432542 1.7182866190676933 0.06009002190750112
Bq 7.694106766112883 1.6668638195170982 0.08818318328765695
Bq 7.613073007900346 1.615441019966503 0.11627634466781278
Bq 7.53203924968781 1.5640182204159079 0.1443695060479686
Bq 7.451005491475273 1.5125954208653125 0.17246266742812444
Bq 7.369971733262736 1.4611726213147176 0.20055582880828027
Bq 7.2889379750502 1.4097498217641224 0.2286489901884361
Bq 7.2079042168376635 1.3583270222135273 0.2567421515685919
Bq 7.126870458625127 1.3069042226629322 0.284835312948748
Bq 7.045836700412591 1.2554814231123368 0.3129284743289036
Bq 6.964802942200054 1.2040586235617419 0.34102163570905963
Bq 6.883769183987517 1.1526358240111465 0.36911479708921546
Bq 6.802735425774981 1.1012130244605516 0.3972079584693713
Bq 6.721701667562444 1.0497902249099564 0.4253011198495269
Bq 6.640667909349907 0.9983674253593611 0.45339428122968295
Bq 6.559634151137371 0.9469446258087661 0.4814874426098388
Bq 6.478600392924834 0.8955218262581708 0.5095806039899946
Bq 6.397566634712298 0.8440990267075759 0.5376737653701504
Bq 6.316532876499761 0.7926762271569807 0.5657669267503063
Bq 6.235499118287224 0.7412534276063856 0.5938600881304623
Bq 6.1544653600746875 0.6898306280557902 0.6219532495106179
Bq 6.0734316018621515 0.6384078285051951 0.650046410890774
Bq 5.9923978436496155 0.5869850289546001 0.6781395722709296
Bq 5.911364085437079 0.535562229404005 0.7062327336510856
Bq 5.830330327224542 0.48413942985340985 0.7343258950312412
Bq 5.749296569012006 0.4327166303028145 0.7624190564113973
Bq 5.668262810799468 0.38129383075221934 0.7905122177915531
Bq 5.587229052586932 0.3298710312016244 0.818605379171709
Bq 5.506195294374396 0.2784482316510293 0.8466985405518648
Bq 5.425161536161859 0.22702543210043413 0.8747917019320206
Bq 5.344127777949322 0.17560263254983854 0.9028848633121765
Bq 5.263094019736786 0.1241798329992434 0.9309780246923323
Bq 5.182060261524249 0.0727570334486487 0.9590711860724881
Bq 5.101026503311712 0.021334233898053556 0.9871643474526439
Bq 5.019992745099176 -0.030088565652541588 1.0152575088327997
Bq 4.9389589868866395 -0.08151136520313718 1.0433506702129556
Bq 4.857925228674103 -0.13293416475373188 1.0714438315931114
Bq 8.074876665115706 1.791521259506942 -0.009155435300023163
Bq 7.99384290690317 1.740098459956347 0.018937726080132666
Bq 7.912809148690633 1.6886756604057518 0.047030887460288495
Bq 7.831775390478097 1.6372528608551566 0.07512404884044432
Bq 7.7507416322655605 1.5858300613045615 0.10321721022060015
Bq 7.669707874053024 1.5344072617539664 0.13131037160075598
Bq 7.588674115840488 1.4829844622033712 0.1594035329809118
Bq 7.507640357627951 1.431561662652776 0.18749669436106764
Bq 7.426606599415414 1.380138863102181 0.2155898557412237
Bq 7.345572841202878 1.3287160635515858 0.2436830171213793
Bq 7.264539082990341 1.2772932640009906 0.27177617850153535
Bq 7.183505324777804 1.2258704644503955 0.2998693398816912
Bq 7.102471566565268 1.1744476648998003 0.327962501261847
Bq 7.021437808352731 1.1230248653492052 0.35605566264200283
Bq 6.940404050140194 1.07160206579861 0.38414882402215866
Bq 6.859370291927658 1.020179266248015 0.4122419854023145
Bq 6.778336533715121 0.9687564666974198 0.4403351467824703
Bq 6.6973027755025845 0.9173336671468246 0.4684283081626264
Bq 6.6162690172900485 0.8659108675962295 0.496521469542782
Bq 6.535235259077512 0.8144880680456343 0.524614630922938
Bq 6.454201500864976 0.7630652684950392 0.5527077923030936
Bq 6.373167742652439 0.711642468944444 0.5808009536832497
Bq 6.292133984439902 0.6602196693938489 0.6088941150634055
Bq 6.211100226227365 0.6087968698432535 0.6369872764435613
Bq 6.130066468014829 0.5573740702926584 0.6650804378237172
Bq 6.049032709802293 0.5059512707420635 0.693173599203873
Bq 5.967998951589756 0.45452847119146833 0.7212667605840288
Bq 5.886965193377219 0.4031056716408732 0.7493599219641847
Bq 5.805931435164683 0.3516828720902778 0.7774530833443407
Bq 5.724897676952145 0.3002600725396827 0.8055462447244963
Bq 5.643863918739609 0.24883727298908775 0.8336394061046521
Bq 5.562830160527073 0.1974144734384926 0.861732567484808
Bq 5.4817964023145365 0.1459916738878977 0.889825728864964
Bq 5.400762644102 0.0945688743373021 0.9179188902451199
Bq 5.319728885889464 0.043146074786706956 0.9460120516252757
Bq 5.238695127676927 -0.008276724763887744 0.9741052130054313
Bq 5.15766136946439 -0.05969952431448289 1.0021983743855873
Bq 5.076627611251854 -0.11112232386507803 1.0302915357657432
Bq 4.995593853039317 -0.16254512341567362 1.058384697145899
Bq 4.91456009482678 -0.21396792296626832 1.0864778585260548
Bq 8.131511531268384 1.7104875012944054 0.005878591632920038
Bq 8.050477773055848 1.6590647017438103 0.03397175301307587
Bq 7.969444014843311 1.6076419021932151 0.062064914393231696
Bq 7.888410256630775 1.5562191026426202 0.09015807577338775
Bq 7.807376498418238 1.504796303092025 0.11825123715354335
Bq 7.726342740205702 1.45337350354143 0.1463443985336994
Bq 7.645308981993165 1.4019507039908345 0.17443755991385523
Bq 7.564275223780628 1.3505279044402394 0.20253072129401106
Bq 7.483241465568092 1.2991051048896445 0.2306238826741669
Bq 7.402207707355555 1.2476823053390493 0.2587170440543227
Bq 7.321173949143018 1.196259505788454 0.28681020543447855
Bq 7.240140190930482 1.1448367062378588 0.3149033668146344
Bq 7.1591064327179454 1.0934139066872637 0.3429965281947902
Bq 7.0780726745054094 1.0419911071366685 0.37108968957494604
Bq 6.997038916292873 0.9905683075860734 0.3991828509551021
Bq 6.916005158080336 0.9391455080354782 0.4272760123352577
Bq 6.8349713998678 0.8877227084848831 0.45536917371541374
Bq 6.753937641655263 0.836299908934288 0.4834623350955696
Bq 6.672903883442726 0.7848771093836928 0.5115554964757254
Bq 6.59187012523019 0.7334543098330977 0.5396486578558812
Bq 6.510836367017653 0.6820315102825025 0.5677418192360371
Bq 6.429802608805116 0.6306087107319074 0.5958349806161929
Bq 6.34876885059258 0.5791859111813122 0.6239281419963487
Bq 6.267735092380043 0.5277631116307171 0.6520213033765045
Bq 6.186701334167506 0.47634031208012195 0.6801144647566604
Bq 6.10566757595497 0.4249175125295268 0.7082076261368162
Bq 6.0246338177424335 0.37349471297893166 0.736300787516972
Bq 5.943600059529897 0.3220719134283365 0.7643939488971279
Bq 5.862566301317361 0.2706491138777414 0.7924871102772839
Bq 5.781532543104824 0.21922631432714623 0.8205802716574397
Bq 5.700498784892288 0.1678035147765511 0.8486734330375953
Bq 5.619465026679751 0.11638071522595594 0.8767665944177514
Bq 5.538431268467214 0.0649579156753608 0.9048597557979072
Bq 5.457397510254677 0.013535116124765656 0.9329529171780631
Bq 5.376363752042141 -0.03788768342582949 0.9610460785582189
Bq 5.295329993829604 -0.08931048297642463 0.9891392399383747
Bq 5.214296235617068 -0.14073328252701978 1.0172324013185305
Bq 5.133262477404531 -0.19215608207761492 1.0453255626986864
Bq 5.052228719191994 -0.24357888162821006 1.0734187240788422
Bq 4.971194960979458 -0.2950016811788052 1.101511885458998
Bq 8.188146397421061 1.629453743081869 0.02091261856586346
Bq 8.107112639208525 1.5780309435312738 0.04900577994601929
Bq 8.026078880995989 1.5266081439806787 0.07709894132617512
Bq 7.945045122783452 1.4751853444300835 0.10519210270633095
Bq 7.864011364570915 1.4237625448794884 0.13328526408648678
Bq 7.782977606358379 1.3723397453288932 0.1613784254666426
Bq 7.701943848145842 1.320916945778298 0.18947158684679843
Bq 7.6209100899333055 1.269494146227703 0.21756474822695426
Bq 7.5398763317207695 1.2180713466771078 0.2456579096071101
Bq 7.458842573508233 1.1666485471265127 0.2737510709872659
Bq 7.377808815295696 1.1152257475759175 0.30184423236742175
Bq 7.29677505708316 1.0638029480253224 0.3299373937475778
Bq 7.215741298870623 1.0123801484747272 0.3580305551277334
Bq 7.134707540658087 0.9609573489241321 0.38612371650788946
Bq 7.05367378244555 0.909534549373537 0.4142168778880453
Bq 6.972640024233013 0.8581117498229418 0.4423100392682011
Bq 6.891606266020477 0.8066889502723467 0.47040320064835695
Bq 6.81057250780794 0.7552661507217515 0.4984963620285128
Bq 6.729538749595403 0.7038433511711564 0.5265895234086686
Bq 6.648504991382867 0.6524205516205612 0.5546826847888244
Bq 6.56747123317033 0.6009977520699661 0.5827758461689803
Bq 6.4864374749577935 0.5495749525193709 0.6108690075491361
Bq 6.4054037167452575 0.4981521529687758 0.6389621689292921
Bq 6.324369958532721 0.44672935341818043 0.6670553303094477
Bq 6.243336200320184 0.3953065538675853 0.6951484916896038
Bq 6.162302442107648 0.34388375431699036 0.7232416530697594
Bq 6.081268683895111 0.2924609547663952 0.7513348144499155
Bq 6.000234925682574 0.24103815521580008 0.7794279758300711
Bq 5.919201167470038 0.1896153556652045 0.8075211372102271
Bq 5.838167409257501 0.13819255611460934 0.8356142985903829
Bq 5.757133651044965 0.08676975656401464 0.8637074599705388
Bq 5.676099892832428 0.0353469570134195 0.8918006213506946
Bq 5.595066134619892 -0.016075842537175644 0.9198937827308504
Bq 5.514032376407354 -0.06749864208777123 0.9479869441110065
Bq 5.432998618194818 -0.11892144163836638 0.9760801054911623
Bq 5.351964859982282 -0.17034424118896108 1.004173266871318
Bq 5.2709311017697456 -0.22176704073955622 1.032266428251474
Bq 5.189897343557209 -0.27318984029015136 1.0603595896316298
Bq 5.108863585344673 -0.32461263984074695 1.0884527510117856
Bq 5.027829827132136 -0.37603543939134165 1.1165459123919415
Bq 8.244781263573739 1.5484199848693323 0.03594664549880666
Bq 8.163747505361203 1.4969971853187372 0.06403980687896249
Bq 8.082713747148667 1.445574385768142 0.09213296825911832
Bq 8.001679988936129 1.3941515862175469 0.12022612963927415
Bq 7.920646230723593 1.3427287866669517 0.14831929101942998
Bq 7.839612472511057 1.2913059871163566 0.1764124523995858
Bq 7.75857871429852 1.2398831875657614 0.20450561377974186
Bq 7.677544956085983 1.1884603880151663 0.23259877515989746
Bq 7.596511197873447 1.1370375884645714 0.2606919365400535
Bq 7.51547743966091 1.0856147889139762 0.28878509792020934
Bq 7.434443681448374 1.034191989363381 0.3168782593003652
Bq 7.353409923235837 0.9827691898127859 0.344971420680521
Bq 7.2723761650233 0.9313463902621906 0.37306458206067683
Bq 7.191342406810764 0.8799235907115956 0.40115774344083266
Bq 7.110308648598227 0.8285007911610003 0.4292509048209885
Bq 7.0292748903856905 0.7770779916104054 0.4573440662011443
Bq 6.9482411321731545 0.7256551920598102 0.48543722758130015
Bq 6.867207373960618 0.6742323925092149 0.5135303889614562
Bq 6.786173615748081 0.6228095929586199 0.5416235503416118
Bq 6.705139857535545 0.5713867934080246 0.5697167117217679
Bq 6.624106099323008 0.5199639938574296 0.5978098731019235
Bq 6.543072341110471 0.4685411943068345 0.6259030344820795
Bq 6.462038582897935 0.41711839475623935 0.6539961958622353
Bq 6.381004824685398 0.36569559520564376 0.6820893572423912
Bq 6.299971066472861 0.3142727956550486 0.710182518622547
Bq 6.218937308260325 0.2628499961044539 0.7382756800027028
Bq 6.137903550047789 0.21142719655385878 0.7663688413828587
Bq 6.056869791835251 0.16000439700326363 0.7944620027630145
Bq 5.975836033622715 0.10858159745266804 0.8225551641431705
Bq 5.8948022754101785 0.0571587979020729 0.8506483255233261
Bq 5.8137685171976425 0.0057359983514782 0.878741486903482
Bq 5.732734758985106 -0.045686801199116944 0.9068346482836379
Bq 5.65170100077257 -0.09710960074971209 0.9349278096637936
Bq 5.570667242560032 -0.14853240030030768 0.9630209710439497
Bq 5.489633484347496 -0.19995519985090282 0.9911141324241055
Bq 5.40859972613496 -0.2513779994014975 1.0192072938042611
Bq 5.327565967922423 -0.30280079895209266 1.0473004551844172
Bq 5.246532209709886 -0.3542235985026878 1.075393616564573
Bq 5.16549845149735 -0.4056463980532834 1.1034867779447288
Bq 5.084464693284813 -0.4570691976038781 1.1315799393248847
Bq 8.301416129726416 1.4673862266567959 0.05098067243174986
Bq 8.22038237151388 1.4159634271062007 0.07907383381190569
Bq 8.139348613301344 1.3645406275556056 0.10716699519206152
Bq 8.058314855088806 1.3131178280050104 0.13526015657221757
Bq 7.97728109687627 1.2616950284544153 0.16335331795237318
Bq 7.896247338663734 1.2102722289038201 0.19144647933252923
Bq 7.815213580451197 1.158849429353225 0.21953964071268506
Bq 7.734179822238661 1.1074266298026298 0.2476328020928409
Bq 7.653146064026124 1.0560038302520347 0.2757259634729967
Bq 7.5721123058135875 1.0045810307014396 0.30381912485315254
Bq 7.4910785476010515 0.9531582311508444 0.3319122862333084
Bq 7.410044789388515 0.9017354316002493 0.3600054476134642
Bq 7.329011031175978 0.8503126320496539 0.38809860899362003
Bq 7.247977272963442 0.798889832499059 0.41619177037377586
Bq 7.166943514750905 0.7474670329484636 0.4442849317539319
Bq 7.085909756538368 0.6960442333978687 0.4723780931340875
Bq 7.004875998325832 0.6446214338472736 0.5004712545142436
Bq 6.923842240113295 0.5931986342966782 0.5285644158943994
Bq 6.842808481900758 0.5417758347460833 0.5566575772745552
Bq 6.761774723688222 0.4903530351954879 0.584750738654711
Bq 6.680740965475685 0.438930235644893 0.6128439000348669
Bq 6.599707207263148 0.38750743609429783 0.6409370614150227
Bq 6.518673449050612 0.3360846365437027 0.6690302227951785
Bq 6.4376396908380755 0.2846618369931073 0.6971233841753344
Bq 6.356605932625539 0.23323903744251218 0.7252165455554902
Bq 6.275572174413003 0.18181623789191703 0.753309706935646
Bq 6.194538416200467 0.1303934383413219 0.7814028683158019
Bq 6.113504657987929 0.07897063879072674 0.8094960296959577
Bq 6.032470899775393 0.0275478392401316 0.8375891910761137
Bq 5.951437141562856 -0.023874960310463544 0.8656823524562696
Bq 5.87040338335032 -0.07529775986105869 0.8937755138364252
Bq 5.789369625137783 -0.12672055941165383 0.9218686752165812
Bq 5.708335866925247 -0.17814335896224898 0.949961836596737
Bq 5.627302108712709 -0.22956615851284412 0.9780549979768929
Bq 5.546268350500173 -0.28098895806343926 1.0061481593570487
Bq 5.465234592287637 -0.3324117576140344 1.0342413207372045
Bq 5.3842008340751 -0.38383455716462955 1.0623344821173604
Bq 5.3031670758625635 -0.4352573567152247 1.0904276434975162
Bq 5.2221333176500275 -0.48668015626581984 1.118520804877672
Bq 5.141099559437491 -0.538102955816415 1.1466139662578279
Bq 8.358050995879093 1.3863524684442594 0.06601469936469329
Bq 8.277017237666557 1.3349296688936643 0.09410786074484911
Bq 8.195983479454021 1.2835068693430691 0.12220102212500494
Bq 8.114949721241484 1.232084069792474 0.15029418350516077
Bq 8.033915963028948 1.1806612702418786 0.1783873448853166
Bq 7.952882204816412 1.1292384706912835 0.20648050626547243
Bq 7.871848446603875 1.0778156711406883 0.23457366764562826
Bq 7.790814688391339 1.0263928715900932 0.2626668290257841
Bq 7.709780930178802 0.974970072039498 0.2907599904059399
Bq 7.628747171966265 0.9235472724889029 0.31885315178609597
Bq 7.547713413753729 0.8721244729383077 0.3469463131662516
Bq 7.466679655541192 0.8207016733877126 0.3750394745464076
Bq 7.385645897328655 0.7692788738371175 0.40313263592656323
Bq 7.304612139116119 0.7178560742865223 0.4312257973067193
Bq 7.223578380903582 0.6664332747359272 0.4593189586868751
Bq 7.142544622691046 0.615010475185332 0.48741212006703094
Bq 7.061510864478509 0.5635876756347369 0.5155052814471868
Bq 6.9804771062659725 0.5121648760841417 0.5435984428273426
Bq 6.8994433480534365 0.4607420765335466 0.5716916042074984
Bq 6.8184095898409 0.40931927698295145 0.5997847655876543
Bq 6.737375831628364 0.3578964774323563 0.6278779269678101
Bq 6.656342073415826 0.30647367788176116 0.6559710883479659
Bq 6.57530831520329 0.255050878331166 0.684064249728122
Bq 6.494274556990753 0.20362807878057088 0.7121574111082776
Bq 6.413240798778216 0.15220527922997573 0.7402505724884336
Bq 6.33220704056568 0.10078247967938059 0.7683437338685892
Bq 6.251173282353144 0.049359680128785444 0.7964368952487453
Bq 6.170139524140606 -0.0020631194218097004 0.8245300566289009
Bq 6.08910576592807 -0.053485918972404844 0.8526232180090569
Bq 6.008072007715533 -0.10490871852299999 0.8807163793892128
Bq 5.927038249502997 -0.15633151807359513 0.9088095407693685
Bq 5.8460044912904605 -0.20775431762419028 0.9369027021495244
Bq 5.7649707330779245 -0.2591771171747854 0.9649958635296803
Bq 5.683936974865387 -0.31059991672538056 0.9930890249098363
Bq 5.602903216652851 -0.3620227162759757 1.0211821862899921
Bq 5.521869458440315 -0.41344551582657085 1.0492753476701477